700
Lattice="40.8 0.0 0.0 0.0 40.8 0.0 0.0 0.0 60.0" Properties=species:S:1:pos:R:3:initial_charges:R:1:masses:R:1:id:I:1:type:I:1:mol-id:I:1:mmcharges:R:1:bonds:S:1:angles:S:1:momenta:R:3:forces:R:3 energy=-2100.884033203125 free_energy=-2100.884033203125 stress="0.00031729176407679915 -6.036185368429869e-06 -2.548056954765343e-06 -6.036185368429869e-06 0.0003135000297334045 1.0046433999377768e-05 -2.548056954765343e-06 1.0046433999377768e-05 0.0002565090835560113" pbc="T T F"
Au       0.00000000       0.00000000     -30.00000000       0.00000000     196.96656900        0        0        0       0.00000000 0 0       1.60136099       4.35253683      -1.12788419       0.00000010       0.00000011      -0.82940555
Au       0.00000000       4.08000000     -30.00000000       0.00000000     196.96656900        0        0        0       0.00000000 0 0      -1.37845650      -1.26377028       1.49240448      -0.00000049      -0.00000001      -0.82940578
Au       0.00000000       8.16000000     -30.00000000       0.00000000     196.96656900        0        0        0       0.00000000 0 0       1.87757392       0.15860723      -2.27875852      -0.00000068       0.00000006      -0.82940578
Au       0.00000000      12.24000000     -30.00000000       0.00000000     196.96656900        0        0        0       0.00000000 0 0       5.31954951       1.36698166       1.93411214      -0.00000059      -0.00000004      -0.82940573
Au       0.00000000      16.32000000     -30.00000000       0.00000000     196.96656900        0        0        0       0.00000000 0 0      -0.58718105       3.55644960       0.15114679      -0.00000047      -0.00000032      -0.82940543
Au       0.00000000      20.40000000     -30.00000000       0.00000000     196.96656900        0        0        0       0.00000000 0 0       1.70012848      -1.17886753      -0.26132029      -0.00000021      -0.00000061      -0.82940614
Au       0.00000000      24.48000000     -30.00000000       0.00000000     196.96656900        0        0        0       0.00000000 0 0       3.12913922       1.16419422      -0.16898866      -0.00000040      -0.00000068      -0.82940590
Au       0.00000000      28.56000000     -30.00000000       0.00000000     196.96656900        0        0        0       0.00000000 0 0      -1.24118880       0.93158714      -1.85121986      -0.00000024      -0.00000078      -0.82940602
Au       0.00000000      32.64000000     -30.00000000       0.00000000     196.96656900        0        0        0       0.00000000 0 0       4.63412504      -1.51040602       3.99321571      -0.00000002      -0.00000052      -0.82940602
Au       0.00000000      36.72000000     -30.00000000       0.00000000     196.96656900        0        0        0       0.00000000 0 0       1.96128481       2.01691679      -0.51701267       0.00000032       0.00000143      -0.82940674
Au       4.08000000       0.00000000     -30.00000000       0.00000000     196.96656900        0        0        0       0.00000000 0 0      -0.08569250       0.88720078      -0.81899029       0.00000009      -0.00000041      -0.82940590
Au       4.08000000       4.08000000     -30.00000000       0.00000000     196.96656900        0        0        0       0.00000000 0 0      -1.04470894       2.70713118      -0.40418263      -0.00000007       0.00000001      -0.82940602
Au       4.08000000       8.16000000     -30.00000000       0.00000000     196.96656900        0        0        0       0.00000000 0 0      -0.44139985       0.23486734       1.60959601       0.00000005       0.00000003      -0.82940602
Au       4.08000000      12.24000000     -30.00000000       0.00000000     196.96656900        0        0        0       0.00000000 0 0      -0.00867057       2.30893891      -2.45265804       0.00000003      -0.00000005      -0.82940626
Au       4.08000000      16.32000000     -30.00000000       0.00000000     196.96656900        0        0        0       0.00000000 0 0       1.74278362       1.49432980      -1.13765105       0.00000011      -0.00000026      -0.82940578
Au       4.08000000      20.40000000     -30.00000000       0.00000000     196.96656900        0        0        0       0.00000000 0 0       1.37873818       0.71786792       3.18466086      -0.00000014      -0.00000084      -0.82940662
Au       4.08000000      24.48000000     -30.00000000       0.00000000     196.96656900        0        0        0       0.00000000 0 0      -1.67540179       0.60703309      -1.51506017      -0.00000006      -0.00000107      -0.82940650
Au       4.08000000      28.56000000     -30.00000000       0.00000000     196.96656900        0        0        0       0.00000000 0 0      -2.46804683      -0.77100200       0.64080143       0.00000000      -0.00000104      -0.82940650
Au       4.08000000      32.64000000     -30.00000000       0.00000000     196.96656900        0        0        0       0.00000000 0 0       0.22197428       2.91068579       0.77289429       0.00000003      -0.00000055      -0.82940662
Au       4.08000000      36.72000000     -30.00000000       0.00000000     196.96656900        0        0        0       0.00000000 0 0       4.34469444       0.50970456      -1.32118873       0.00000012       0.00000156      -0.82940710
Au       8.16000000       0.00000000     -30.00000000       0.00000000     196.96656900        0        0        0       0.00000000 0 0      -0.58182525      -1.53620006       0.62703721      -0.00000010      -0.00000054      -0.82940578
Au       8.16000000       4.08000000     -30.00000000       0.00000000     196.96656900        0        0        0       0.00000000 0 0       1.44144776       2.31190782      -2.08842935       0.00000003      -0.00000001      -0.82940614
Au       8.16000000       8.16000000     -30.00000000       0.00000000     196.96656900        0        0        0       0.00000000 0 0      -1.76397865      -2.48676301      -3.14367550       0.00000001       0.00000003      -0.82940626
Au       8.16000000      12.24000000     -30.00000000       0.00000000     196.96656900        0        0        0       0.00000000 0 0       2.90367684       0.48927442      -0.35066997      -0.00000005      -0.00000016      -0.82940608
Au       8.16000000      16.32000000     -30.00000000       0.00000000     196.96656900        0        0        0       0.00000000 0 0       0.82579241       3.43839366       0.31964469       0.00000001      -0.00000008      -0.82940578
Au       8.16000000      20.40000000     -30.00000000       0.00000000     196.96656900        0        0        0       0.00000000 0 0      -1.84056121       3.11575691       0.44090290       0.00000003      -0.00000086      -0.82940650
Au       8.16000000      24.48000000     -30.00000000       0.00000000     196.96656900        0        0        0       0.00000000 0 0       2.31700227       3.66358052      -2.03389317       0.00000006      -0.00000102      -0.82940674
Au       8.16000000      28.56000000     -30.00000000       0.00000000     196.96656900        0        0        0       0.00000000 0 0      -2.24779811      -4.94829676      -1.20331241       0.00000003      -0.00000096      -0.82940662
Au       8.16000000      32.64000000     -30.00000000       0.00000000     196.96656900        0        0        0       0.00000000 0 0       0.46479969       1.85675934       1.13936840       0.00000010      -0.00000038      -0.82940650
Au       8.16000000      36.72000000     -30.00000000       0.00000000     196.96656900        0        0        0       0.00000000 0 0      -1.93812693       0.67339537      -4.76284332      -0.00000005       0.00000149      -0.82940698
Au      12.24000000       0.00000000     -30.00000000       0.00000000     196.96656900        0        0        0       0.00000000 0 0      -2.68555555      -3.22941745       1.98915737       0.00000004      -0.00000044      -0.82940590
Au      12.24000000       4.08000000     -30.00000000       0.00000000     196.96656900        0        0        0       0.00000000 0 0      -1.79851007      -0.72635195      -3.34355645      -0.00000003      -0.00000001      -0.82940596
Au      12.24000000       8.16000000     -30.00000000       0.00000000     196.96656900        0        0        0       0.00000000 0 0       1.84320268      -3.05902879       3.08066625      -0.00000000       0.00000018      -0.82940626
Au      12.24000000      12.24000000     -30.00000000       0.00000000     196.96656900        0        0        0       0.00000000 0 0       2.42782581      -0.87122669       3.18211668       0.00000002      -0.00000005      -0.82940626
Au      12.24000000      16.32000000     -30.00000000       0.00000000     196.96656900        0        0        0       0.00000000 0 0      -0.64320205      -0.81935754      -0.90126925       0.00000001      -0.00000017      -0.82940578
Au      12.24000000      20.40000000     -30.00000000       0.00000000     196.96656900        0        0        0       0.00000000 0 0       1.36946925       0.42044350      -3.94405809      -0.00000005      -0.00000090      -0.82940662
Au      12.24000000      24.48000000     -30.00000000       0.00000000     196.96656900        0        0        0       0.00000000 0 0       1.14073999       2.45489377      -2.67950432      -0.00000006      -0.00000110      -0.82940662
Au      12.24000000      28.56000000     -30.00000000       0.00000000     196.96656900        0        0        0       0.00000000 0 0       2.17094216      -1.92895122       1.98514932      -0.00000009      -0.00000095      -0.82940662
Au      12.24000000      32.64000000     -30.00000000       0.00000000     196.96656900        0        0        0       0.00000000 0 0       2.30577804      -0.83061839      -1.42660373      -0.00000020      -0.00000048      -0.82940656
Au      12.24000000      36.72000000     -30.00000000       0.00000000     196.96656900        0        0        0       0.00000000 0 0       2.79979849       0.87100259       1.31478687      -0.00000004       0.00000146      -0.82940698
Au      16.32000000       0.00000000     -30.00000000       0.00000000     196.96656900        0        0        0       0.00000000 0 0      -0.63947772      -0.60574171       0.91220001      -0.00000032      -0.00000050      -0.82940543
Au      16.32000000       4.08000000     -30.00000000       0.00000000     196.96656900        0        0        0       0.00000000 0 0      -2.92045122       1.80599117       2.53140069      -0.00000032      -0.00000014      -0.82940567
Au      16.32000000       8.16000000     -30.00000000       0.00000000     196.96656900        0        0        0       0.00000000 0 0       0.52705566       5.88281653       0.69160876      -0.00000025      -0.00000000      -0.82940584
Au      16.32000000      12.24000000     -30.00000000       0.00000000     196.96656900        0        0        0       0.00000000 0 0       0.98200320      -0.53175081      -0.40204820      -0.00000014      -0.00000005      -0.82940590
Au      16.32000000      16.32000000     -30.00000000       0.00000000     196.96656900        0        0        0       0.00000000 0 0      -0.99743216      -1.99021285      -3.31845559      -0.00000032      -0.00000028      -0.82940519
Au      16.32000000      20.40000000     -30.00000000       0.00000000     196.96656900        0        0        0       0.00000000 0 0      -0.12588717       0.04415571       3.41143294      -0.00000037      -0.00000049      -0.82940602
Au      16.32000000      24.48000000     -30.00000000       0.00000000     196.96656900        0        0        0       0.00000000 0 0       0.00861190      -1.45760380       4.73462227      -0.00000046      -0.00000054      -0.82940608
Au      16.32000000      28.56000000     -30.00000000       0.00000000     196.96656900        0        0        0       0.00000000 0 0       0.66150341      -0.77574228      -2.46377217      -0.00000044      -0.00000079      -0.82940602
Au      16.32000000      32.64000000     -30.00000000       0.00000000     196.96656900        0        0        0       0.00000000 0 0      -1.76479268       2.71678048       2.57010094      -0.00000070      -0.00000010      -0.82940596
Au      16.32000000      36.72000000     -30.00000000       0.00000000     196.96656900        0        0        0       0.00000000 0 0      -3.35631729      -2.09337798      -3.16222358      -0.00000021       0.00000164      -0.82940674
Au      20.40000000       0.00000000     -30.00000000       0.00000000     196.96656900        0        0        0       0.00000000 0 0      -5.97048439       0.33001207      -2.12403009      -0.00000058      -0.00000037      -0.82940602
Au      20.40000000       4.08000000     -30.00000000       0.00000000     196.96656900        0        0        0       0.00000000 0 0       4.12594498       0.72119881       1.14686303      -0.00000093       0.00000003      -0.82940662
Au      20.40000000       8.16000000     -30.00000000       0.00000000     196.96656900        0        0        0       0.00000000 0 0       3.36396177       0.00775241      -0.41168658      -0.00000085       0.00000003      -0.82940674
Au      20.40000000      12.24000000     -30.00000000       0.00000000     196.96656900        0        0        0       0.00000000 0 0       0.96939645       1.47023135       0.66337993      -0.00000083      -0.00000003      -0.82940668
Au      20.40000000      16.32000000     -30.00000000       0.00000000     196.96656900        0        0        0       0.00000000 0 0       2.32738719       1.10376393       0.20058684      -0.00000058      -0.00000043      -0.82940614
Au      20.40000000      20.40000000     -30.00000000       0.00000000     196.96656900        0        0        0       0.00000000 0 0       3.55294796      -0.07610416       1.02325626      -0.00000049      -0.00000056      -0.82940638
Au      20.40000000      24.48000000     -30.00000000       0.00000000     196.96656900        0        0        0       0.00000000 0 0       0.12905272      -1.51808692       3.55216779      -0.00000045      -0.00000052      -0.82940626
Au      20.40000000      28.56000000     -30.00000000       0.00000000     196.96656900        0        0        0       0.00000000 0 0      -0.17326014       1.19018808       1.71178123      -0.00000045      -0.00000079      -0.82940632
Au      20.40000000      32.64000000     -30.00000000       0.00000000     196.96656900        0        0        0       0.00000000 0 0      -1.52871296      -1.66025699       3.38713156      -0.00000047      -0.00000024      -0.82940626
Au      20.40000000      36.72000000     -30.00000000       0.00000000     196.96656900        0        0        0       0.00000000 0 0       2.91480546      -1.13494146      -3.74931370      -0.00000052       0.00000165      -0.82940733
Au      24.48000000       0.00000000     -30.00000000       0.00000000     196.96656900        0        0        0       0.00000000 0 0      -1.24143903       0.44882325       1.79720987      -0.00000064      -0.00000026      -0.82940602
Au      24.48000000       4.08000000     -30.00000000       0.00000000     196.96656900        0        0        0       0.00000000 0 0      -2.56988642       1.18509204      -6.08344398      -0.00000086      -0.00000006      -0.82940644
Au      24.48000000       8.16000000     -30.00000000       0.00000000     196.96656900        0        0        0       0.00000000 0 0       0.08682370      -4.49229480      -2.97130523      -0.00000088       0.00000005      -0.82940662
Au      24.48000000      12.24000000     -30.00000000       0.00000000     196.96656900        0        0        0       0.00000000 0 0       1.48847934      -1.68403931      -1.94995202      -0.00000096      -0.00000013      -0.82940662
Au      24.48000000      16.32000000     -30.00000000       0.00000000     196.96656900        0        0        0       0.00000000 0 0      -0.68005906       1.25547964       1.58908513      -0.00000068      -0.00000042      -0.82940608
Au      24.48000000      20.40000000     -30.00000000       0.00000000     196.96656900        0        0        0       0.00000000 0 0      -1.90580784      -0.36973624       0.05265858      -0.00000048      -0.00000046      -0.82940644
Au      24.48000000      24.48000000     -30.00000000       0.00000000     196.96656900        0        0        0       0.00000000 0 0      -6.94726141       2.50603326       0.15760026      -0.00000052      -0.00000052      -0.82940638
Au      24.48000000      28.56000000     -30.00000000       0.00000000     196.96656900        0        0        0       0.00000000 0 0       2.53181055      -0.08661377       0.59370513      -0.00000055      -0.00000066      -0.82940650
Au      24.48000000      32.64000000     -30.00000000       0.00000000     196.96656900        0        0        0       0.00000000 0 0       1.23275987       2.72976273       1.79539009      -0.00000044      -0.00000005      -0.82940650
Au      24.48000000      36.72000000     -30.00000000       0.00000000     196.96656900        0        0        0       0.00000000 0 0       1.59765583       1.16481181       0.40878395      -0.00000055       0.00000159      -0.82940722
Au      28.56000000       0.00000000     -30.00000000       0.00000000     196.96656900        0        0        0       0.00000000 0 0      -0.56489567       2.15594790      -3.73631861      -0.00000074      -0.00000040      -0.82940608
Au      28.56000000       4.08000000     -30.00000000       0.00000000     196.96656900        0        0        0       0.00000000 0 0      -0.99150748      -0.68844657      -1.08317194      -0.00000108      -0.00000001      -0.82940656
Au      28.56000000       8.16000000     -30.00000000       0.00000000     196.96656900        0        0        0       0.00000000 0 0      -1.52729757       0.83895273      -4.53410876      -0.00000091      -0.00000001      -0.82940656
Au      28.56000000      12.24000000     -30.00000000       0.00000000     196.96656900        0        0        0       0.00000000 0 0      -3.43632489      -1.30916139       1.00106053      -0.00000101      -0.00000010      -0.82940662
Au      28.56000000      16.32000000     -30.00000000       0.00000000     196.96656900        0        0        0       0.00000000 0 0       1.58645892       0.75351932       1.47556104      -0.00000063      -0.00000035      -0.82940602
Au      28.56000000      20.40000000     -30.00000000       0.00000000     196.96656900        0        0        0       0.00000000 0 0       0.92900862      -0.88684337      -1.32419014      -0.00000060      -0.00000048      -0.82940626
Au      28.56000000      24.48000000     -30.00000000       0.00000000     196.96656900        0        0        0       0.00000000 0 0      -0.11447432      -0.06520813      -2.43663525      -0.00000060      -0.00000060      -0.82940650
Au      28.56000000      28.56000000     -30.00000000       0.00000000     196.96656900        0        0        0       0.00000000 0 0       0.70608646       3.95542351      -2.09199730      -0.00000065      -0.00000069      -0.82940662
Au      28.56000000      32.64000000     -30.00000000       0.00000000     196.96656900        0        0        0       0.00000000 0 0       2.02195452      -0.25294979       1.58629427      -0.00000045      -0.00000011      -0.82940638
Au      28.56000000      36.72000000     -30.00000000       0.00000000     196.96656900        0        0        0       0.00000000 0 0      -0.89863761      -1.58952823       1.33370925      -0.00000062       0.00000168      -0.82940739
Au      32.64000000       0.00000000     -30.00000000       0.00000000     196.96656900        0        0        0       0.00000000 0 0       4.41703993      -1.24343133       1.44964526      -0.00000045      -0.00000000      -0.82940608
Au      32.64000000       4.08000000     -30.00000000       0.00000000     196.96656900        0        0        0       0.00000000 0 0       2.90464706       1.04812405      -1.03989397      -0.00000039       0.00000013      -0.82940662
Au      32.64000000       8.16000000     -30.00000000       0.00000000     196.96656900        0        0        0       0.00000000 0 0      -0.10567542       0.67269597      -3.36344086      -0.00000038       0.00000004      -0.82940662
Au      32.64000000      12.24000000     -30.00000000       0.00000000     196.96656900        0        0        0       0.00000000 0 0       2.08214524       2.29171278       1.89098976      -0.00000052      -0.00000016      -0.82940644
Au      32.64000000      16.32000000     -30.00000000       0.00000000     196.96656900        0        0        0       0.00000000 0 0      -2.95320222       1.24784878      -1.79021992      -0.00000014      -0.00000043      -0.82940602
Au      32.64000000      20.40000000     -30.00000000       0.00000000     196.96656900        0        0        0       0.00000000 0 0       0.51891669       2.22439440       0.71588219      -0.00000007      -0.00000060      -0.82940632
Au      32.64000000      24.48000000     -30.00000000       0.00000000     196.96656900        0        0        0       0.00000000 0 0       2.36960247       2.18408088       0.97635288      -0.00000015      -0.00000060      -0.82940638
Au      32.64000000      28.56000000     -30.00000000       0.00000000     196.96656900        0        0        0       0.00000000 0 0       5.33664586       0.87983555      -0.03062703      -0.00000019      -0.00000052      -0.82940626
Au      32.64000000      32.64000000     -30.00000000       0.00000000     196.96656900        0        0        0       0.00000000 0 0       4.56858710       4.08393630       0.26987057      -0.00000040      -0.00000037      -0.82940644
Au      32.64000000      36.72000000     -30.00000000       0.00000000     196.96656900        0        0        0       0.00000000 0 0       1.79454771      -1.78426592      -2.08927954      -0.00000051       0.00000153      -0.82940739
Au      36.72000000       0.00000000     -30.00000000       0.00000000     196.96656900        0        0        0       0.00000000 0 0      -1.30491326      -0.02874421      -0.95683628       0.00000118       0.00000032      -0.82940668
Au      36.72000000       4.08000000     -30.00000000       0.00000000     196.96656900        0        0        0       0.00000000 0 0       0.40823326      -2.30682590      -0.12007953       0.00000146       0.00000001      -0.82940716
Au      36.72000000       8.16000000     -30.00000000       0.00000000     196.96656900        0        0        0       0.00000000 0 0      -3.40429582      -4.25577609       2.07593478       0.00000146      -0.00000002      -0.82940710
Au      36.72000000      12.24000000     -30.00000000       0.00000000     196.96656900        0        0        0       0.00000000 0 0       3.52694128      -1.40757387       2.67062235       0.00000154      -0.00000009      -0.82940710
Au      36.72000000      16.32000000     -30.00000000       0.00000000     196.96656900        0        0        0       0.00000000 0 0      -1.96166777       1.97609984      -1.58768882       0.00000154      -0.00000024      -0.82940692
Au      36.72000000      20.40000000     -30.00000000       0.00000000     196.96656900        0        0        0       0.00000000 0 0      -2.16579367       1.90353726       2.12665742       0.00000162      -0.00000052      -0.82940727
Au      36.72000000      24.48000000     -30.00000000       0.00000000     196.96656900        0        0        0       0.00000000 0 0      -0.20619092       1.67364948       0.48404712       0.00000157      -0.00000055      -0.82940722
Au      36.72000000      28.56000000     -30.00000000       0.00000000     196.96656900        0        0        0       0.00000000 0 0       2.68801681       0.20249720       0.87666634       0.00000159      -0.00000067      -0.82940733
Au      36.72000000      32.64000000     -30.00000000       0.00000000     196.96656900        0        0        0       0.00000000 0 0       1.26574058       4.98138530       0.05323378       0.00000129      -0.00000076      -0.82940722
Au      36.72000000      36.72000000     -30.00000000       0.00000000     196.96656900        0        0        0       0.00000000 0 0      -0.95328926       5.35333038       0.08657347       0.00000115       0.00000126      -0.82940829
Au       2.04000000       2.04000000     -32.04000000       0.00000000     196.96656900        0        0        0       0.00000000 0 0       3.08046701       2.58393948       2.00249033      -0.00000021      -0.00000028       0.02850039
Au       2.04000000       6.12000000     -32.04000000       0.00000000     196.96656900        0        0        0       0.00000000 0 0      -1.06965139       0.77882665       1.29825882      -0.00000045       0.00000013       0.02849995
Au       2.04000000      10.20000000     -32.04000000       0.00000000     196.96656900        0        0        0       0.00000000 0 0       1.06835314      -0.22915189       0.09341423      -0.00000040      -0.00000014       0.02849993
Au       2.04000000      14.28000000     -32.04000000       0.00000000     196.96656900        0        0        0       0.00000000 0 0      -1.25080883      -1.08115440      -4.46411758      -0.00000049      -0.00000005       0.02850025
Au       2.04000000      18.36000000     -32.04000000       0.00000000     196.96656900        0        0        0       0.00000000 0 0      -0.62792466      -0.25473379      -0.59873825      -0.00000061       0.00000197       0.02850042
Au       2.04000000      22.44000000     -32.04000000       0.00000000     196.96656900        0        0        0       0.00000000 0 0       2.07500621       3.55148834      -1.25611658      -0.00000052       0.00000182       0.02850019
Au       2.04000000      26.52000000     -32.04000000       0.00000000     196.96656900        0        0        0       0.00000000 0 0       0.37717452      -1.34433281      -3.52597989      -0.00000057       0.00000192       0.02850022
Au       2.04000000      30.60000000     -32.04000000       0.00000000     196.96656900        0        0        0       0.00000000 0 0       2.59171478      -2.44735380       2.42267378      -0.00000055       0.00000188       0.02850027
Au       2.04000000      34.68000000     -32.04000000       0.00000000     196.96656900        0        0        0       0.00000000 0 0      -0.05582782       1.05483012      -0.57036590      -0.00000005       0.00000050       0.02850021
Au       2.04000000      38.76000000     -32.04000000       0.00000000     196.96656900        0        0        0       0.00000000 0 0       4.10672803       0.75812228      -3.06524981      -0.00000008      -0.00000252       0.02850027
Au       6.12000000       2.04000000     -32.04000000       0.00000000     196.96656900        0        0        0       0.00000000 0 0      -0.52590680      -1.47311031       2.44701903       0.00000008      -0.00000039       0.02850009
Au       6.12000000       6.12000000     -32.04000000       0.00000000     196.96656900        0        0        0       0.00000000 0 0      -3.75914802      -0.32882213      -1.52368688      -0.00000013      -0.00000002       0.02850005
Au       6.12000000      10.20000000     -32.04000000       0.00000000     196.96656900        0        0        0       0.00000000 0 0      -1.80647429       1.35589863      -1.77765063      -0.00000002      -0.00000004       0.02850010
Au       6.12000000      14.28000000     -32.04000000       0.00000000     196.96656900        0        0        0       0.00000000 0 0       2.53547303      -1.58953287       2.12798531      -0.00000011      -0.00000003       0.02849998
Au       6.12000000      18.36000000     -32.04000000       0.00000000     196.96656900        0        0        0       0.00000000 0 0      -4.66863324      -1.92730725       0.57724146       0.00000008       0.00000176       0.02850020
Au       6.12000000      22.44000000     -32.04000000       0.00000000     196.96656900        0        0        0       0.00000000 0 0       1.31971240      -1.14861781      -1.47060255      -0.00000004       0.00000183       0.02850011
Au       6.12000000      26.52000000     -32.04000000       0.00000000     196.96656900        0        0        0       0.00000000 0 0       1.04983253       5.49159887      -0.81382604      -0.00000006       0.00000209       0.02850022
Au       6.12000000      30.60000000     -32.04000000       0.00000000     196.96656900        0        0        0       0.00000000 0 0       1.50373700      -0.65774943       3.12191098      -0.00000001       0.00000169       0.02850018
Au       6.12000000      34.68000000     -32.04000000       0.00000000     196.96656900        0        0        0       0.00000000 0 0      -0.61218881      -1.64432817      -5.43289359      -0.00000011       0.00000082       0.02850037
Au       6.12000000      38.76000000     -32.04000000       0.00000000     196.96656900        0        0        0       0.00000000 0 0      -1.96144163       3.67308782      -0.08544910      -0.00000005      -0.00000239       0.02850020
Au      10.20000000       2.04000000     -32.04000000       0.00000000     196.96656900        0        0        0       0.00000000 0 0       4.19624384       0.12198906       2.02123140      -0.00000000      -0.00000058       0.02850018
Au      10.20000000       6.12000000     -32.04000000       0.00000000     196.96656900        0        0        0       0.00000000 0 0      -3.14099602       2.21390851      -2.41147391      -0.00000001       0.00000019       0.02850022
Au      10.20000000      10.20000000     -32.04000000       0.00000000     196.96656900        0        0        0       0.00000000 0 0      -3.27579569       3.23984711       0.01006757       0.00000012       0.00000004       0.02850010
Au      10.20000000      14.28000000     -32.04000000       0.00000000     196.96656900        0        0        0       0.00000000 0 0      -5.17655646       2.41370682      -3.27301664       0.00000001      -0.00000009       0.02849992
Au      10.20000000      18.36000000     -32.04000000       0.00000000     196.96656900        0        0        0       0.00000000 0 0       0.14206351       3.01709133       2.04733575      -0.00000018       0.00000203       0.02850027
Au      10.20000000      22.44000000     -32.04000000       0.00000000     196.96656900        0        0        0       0.00000000 0 0      -4.27709166      -1.19543026       2.05856280       0.00000000       0.00000210       0.02850012
Au      10.20000000      26.52000000     -32.04000000       0.00000000     196.96656900        0        0        0       0.00000000 0 0       6.77339008       0.43142404       4.12112304       0.00000004       0.00000189       0.02850021
Au      10.20000000      30.60000000     -32.04000000       0.00000000     196.96656900        0        0        0       0.00000000 0 0       0.46115338       0.38789404       1.35111844      -0.00000003       0.00000180       0.02850028
Au      10.20000000      34.68000000     -32.04000000       0.00000000     196.96656900        0        0        0       0.00000000 0 0       1.61676577      -2.25163720       1.40835632       0.00000005       0.00000108       0.02850017
Au      10.20000000      38.76000000     -32.04000000       0.00000000     196.96656900        0        0        0       0.00000000 0 0      -0.13118239      -0.29632596       0.57208695       0.00000003      -0.00000255       0.02850010
Au      14.28000000       2.04000000     -32.04000000       0.00000000     196.96656900        0        0        0       0.00000000 0 0      -4.53953978       0.81293367       2.43538927       0.00000006      -0.00000051       0.02850022
Au      14.28000000       6.12000000     -32.04000000       0.00000000     196.96656900        0        0        0       0.00000000 0 0       2.28978099       3.75079542       2.00573535      -0.00000001       0.00000014       0.02850010
Au      14.28000000      10.20000000     -32.04000000       0.00000000     196.96656900        0        0        0       0.00000000 0 0      -3.02511908      -3.12761547       1.97640148      -0.00000014      -0.00000013       0.02850024
Au      14.28000000      14.28000000     -32.04000000       0.00000000     196.96656900        0        0        0       0.00000000 0 0       4.07891396      -2.53470468      -0.54787320       0.00000024       0.00000015       0.02850035
Au      14.28000000      18.36000000     -32.04000000       0.00000000     196.96656900        0        0        0       0.00000000 0 0       1.71536840       2.43670864      -2.76348760       0.00000017       0.00000166       0.02850015
Au      14.28000000      22.44000000     -32.04000000       0.00000000     196.96656900        0        0        0       0.00000000 0 0       1.70292241       0.35610014       0.24710231      -0.00000009       0.00000202       0.02850014
Au      14.28000000      26.52000000     -32.04000000       0.00000000     196.96656900        0        0        0       0.00000000 0 0       2.36740418       1.17303767      -0.95905537      -0.00000004       0.00000205       0.02850016
Au      14.28000000      30.60000000     -32.04000000       0.00000000     196.96656900        0        0        0       0.00000000 0 0       4.60321047       6.83134500       1.94908607       0.00000022       0.00000164       0.02850036
Au      14.28000000      34.68000000     -32.04000000       0.00000000     196.96656900        0        0        0       0.00000000 0 0       0.70348226      -0.94958220       2.19812731      -0.00000028       0.00000048       0.02850059
Au      14.28000000      38.76000000     -32.04000000       0.00000000     196.96656900        0        0        0       0.00000000 0 0       1.15963672       2.87813961       3.66929269      -0.00000019      -0.00000217       0.02850026
Au      18.36000000       2.04000000     -32.04000000       0.00000000     196.96656900        0        0        0       0.00000000 0 0      -0.82151521       0.39456339      -0.81974524       0.00000181      -0.00000049       0.02850021
Au      18.36000000       6.12000000     -32.04000000       0.00000000     196.96656900        0        0        0       0.00000000 0 0      -0.68008388      -0.84291365       2.64660139       0.00000182       0.00000017       0.02850019
Au      18.36000000      10.20000000     -32.04000000       0.00000000     196.96656900        0        0        0       0.00000000 0 0       6.12659990       3.11777340      -1.98443850       0.00000183       0.00000003       0.02850020
Au      18.36000000      14.28000000     -32.04000000       0.00000000     196.96656900        0        0        0       0.00000000 0 0      -1.01550038      -1.53622743      -3.34629886       0.00000184       0.00000017       0.02850024
Au      18.36000000      18.36000000     -32.04000000       0.00000000     196.96656900        0        0        0       0.00000000 0 0      -0.90326310       4.10007110      -1.37003683       0.00000091       0.00000105       0.02850032
Au      18.36000000      22.44000000     -32.04000000       0.00000000     196.96656900        0        0        0       0.00000000 0 0       2.51456881       2.80393883      -0.58249782       0.00000107       0.00000102       0.02850014
Au      18.36000000      26.52000000     -32.04000000       0.00000000     196.96656900        0        0        0       0.00000000 0 0      -0.50690051       0.39153532      -2.07856214       0.00000108       0.00000087       0.02850008
Au      18.36000000      30.60000000     -32.04000000       0.00000000     196.96656900        0        0        0       0.00000000 0 0      -0.71365768      -0.54139716       2.52739009       0.00000114       0.00000102       0.02849994
Au      18.36000000      34.68000000     -32.04000000       0.00000000     196.96656900        0        0        0       0.00000000 0 0       0.88591234       0.01904334       1.36384520       0.00000113       0.00000046       0.02850029
Au      18.36000000      38.76000000     -32.04000000       0.00000000     196.96656900        0        0        0       0.00000000 0 0      -1.99391230       4.24504887       1.06963699       0.00000116      -0.00000241       0.02850023
Au      22.44000000       2.04000000     -32.04000000       0.00000000     196.96656900        0        0        0       0.00000000 0 0      -0.23639993       0.89588755       0.12103694       0.00000178      -0.00000057       0.02850008
Au      22.44000000       6.12000000     -32.04000000       0.00000000     196.96656900        0        0        0       0.00000000 0 0      -2.39709564      -2.26545579      -1.07004491       0.00000185       0.00000003       0.02850004
Au      22.44000000      10.20000000     -32.04000000       0.00000000     196.96656900        0        0        0       0.00000000 0 0       1.04930387       2.70842112       1.30125528       0.00000181      -0.00000012       0.02850023
Au      22.44000000      14.28000000     -32.04000000       0.00000000     196.96656900        0        0        0       0.00000000 0 0      -1.35008277      -0.26586509       1.10741450       0.00000194      -0.00000006       0.02850029
Au      22.44000000      18.36000000     -32.04000000       0.00000000     196.96656900        0        0        0       0.00000000 0 0      -0.35586403       4.01008269      -2.49171988       0.00000109       0.00000121       0.02850007
Au      22.44000000      22.44000000     -32.04000000       0.00000000     196.96656900        0        0        0       0.00000000 0 0      -2.92963069       3.96742212       2.00689932       0.00000113       0.00000103       0.02850017
Au      22.44000000      26.52000000     -32.04000000       0.00000000     196.96656900        0        0        0       0.00000000 0 0       1.42143801       2.90620106       0.90972540       0.00000108       0.00000114       0.02850004
Au      22.44000000      30.60000000     -32.04000000       0.00000000     196.96656900        0        0        0       0.00000000 0 0      -1.42318068      -2.98970490       1.47764158       0.00000117       0.00000108       0.02850010
Au      22.44000000      34.68000000     -32.04000000       0.00000000     196.96656900        0        0        0       0.00000000 0 0      -4.00647852       2.71921600       1.57012530       0.00000102       0.00000077       0.02850017
Au      22.44000000      38.76000000     -32.04000000       0.00000000     196.96656900        0        0        0       0.00000000 0 0      -3.42418484       1.70820694      -1.11589589       0.00000104      -0.00000271       0.02850010
Au      26.52000000       2.04000000     -32.04000000       0.00000000     196.96656900        0        0        0       0.00000000 0 0      -2.77431897       0.83544217      -0.19120187       0.00000180      -0.00000051       0.02850013
Au      26.52000000       6.12000000     -32.04000000       0.00000000     196.96656900        0        0        0       0.00000000 0 0      -0.64897983       3.17110619       2.68762772       0.00000190      -0.00000004       0.02850011
Au      26.52000000      10.20000000     -32.04000000       0.00000000     196.96656900        0        0        0       0.00000000 0 0       0.18069539      -2.34458189      -0.99169403       0.00000200       0.00000003       0.02850001
Au      26.52000000      14.28000000     -32.04000000       0.00000000     196.96656900        0        0        0       0.00000000 0 0      -0.34423022       3.01266968       4.59816102       0.00000190       0.00000002       0.02849997
Au      26.52000000      18.36000000     -32.04000000       0.00000000     196.96656900        0        0        0       0.00000000 0 0       2.33384666      -2.05127461       3.51418251       0.00000104       0.00000125       0.02849999
Au      26.52000000      22.44000000     -32.04000000       0.00000000     196.96656900        0        0        0       0.00000000 0 0       2.98485733      -2.86015753       0.69875248       0.00000126       0.00000109       0.02850001
Au      26.52000000      26.52000000     -32.04000000       0.00000000     196.96656900        0        0        0       0.00000000 0 0      -4.00391061       1.68633099      -4.44873257       0.00000113       0.00000114       0.02849998
Au      26.52000000      30.60000000     -32.04000000       0.00000000     196.96656900        0        0        0       0.00000000 0 0       2.49407320      -1.39711442      -2.68923947       0.00000121       0.00000107       0.02850012
Au      26.52000000      34.68000000     -32.04000000       0.00000000     196.96656900        0        0        0       0.00000000 0 0      -0.37553405       1.25560645      -2.30722519       0.00000071       0.00000074       0.02850032
Au      26.52000000      38.76000000     -32.04000000       0.00000000     196.96656900        0        0        0       0.00000000 0 0      -1.65426442       1.48552632       2.98869545       0.00000096      -0.00000268       0.02850026
Au      30.60000000       2.04000000     -32.04000000       0.00000000     196.96656900        0        0        0       0.00000000 0 0      -2.00345248       0.27317606      -0.63966706       0.00000184      -0.00000062       0.02850024
Au      30.60000000       6.12000000     -32.04000000       0.00000000     196.96656900        0        0        0       0.00000000 0 0       2.67264044      -0.85720646       0.43499998       0.00000175       0.00000007       0.02849993
Au      30.60000000      10.20000000     -32.04000000       0.00000000     196.96656900        0        0        0       0.00000000 0 0       0.33908694       1.50305185      -1.03197799       0.00000189      -0.00000010       0.02850001
Au      30.60000000      14.28000000     -32.04000000       0.00000000     196.96656900        0        0        0       0.00000000 0 0      -1.68966609       2.13841375      -2.52192802       0.00000194      -0.00000015       0.02850022
Au      30.60000000      18.36000000     -32.04000000       0.00000000     196.96656900        0        0        0       0.00000000 0 0      -3.40605138      -1.38134806       0.61712293       0.00000093       0.00000128       0.02850010
Au      30.60000000      22.44000000     -32.04000000       0.00000000     196.96656900        0        0        0       0.00000000 0 0       1.64114499       3.41275718       1.41380469       0.00000087       0.00000145       0.02850010
Au      30.60000000      26.52000000     -32.04000000       0.00000000     196.96656900        0        0        0       0.00000000 0 0       1.67482519       1.99102406       1.52921262       0.00000100       0.00000115       0.02850010
Au      30.60000000      30.60000000     -32.04000000       0.00000000     196.96656900        0        0        0       0.00000000 0 0       5.29706809      -2.47730152       0.48596134       0.00000103       0.00000118       0.02850012
Au      30.60000000      34.68000000     -32.04000000       0.00000000     196.96656900        0        0        0       0.00000000 0 0      -0.30837994       1.49619605      -0.65836157       0.00000077       0.00000060       0.02850027
Au      30.60000000      38.76000000     -32.04000000       0.00000000     196.96656900        0        0        0       0.00000000 0 0      -1.79308012      -1.05116327       2.60250421       0.00000088      -0.00000266       0.02850021
Au      34.68000000       2.04000000     -32.04000000       0.00000000     196.96656900        0        0        0       0.00000000 0 0       1.28726739       0.71068363       0.54754514       0.00000040      -0.00000007       0.02850044
Au      34.68000000       6.12000000     -32.04000000       0.00000000     196.96656900        0        0        0       0.00000000 0 0      -0.81963948      -1.99088348       1.90233103       0.00000076       0.00000008       0.02850036
Au      34.68000000      10.20000000     -32.04000000       0.00000000     196.96656900        0        0        0       0.00000000 0 0       1.04053617      -4.99005135      -3.46890672       0.00000077       0.00000004       0.02850027
Au      34.68000000      14.28000000     -32.04000000       0.00000000     196.96656900        0        0        0       0.00000000 0 0      -2.47410845      -0.26972470      -1.62975554       0.00000052      -0.00000020       0.02850038
Au      34.68000000      18.36000000     -32.04000000       0.00000000     196.96656900        0        0        0       0.00000000 0 0       7.09829059      -0.66675063      -1.84442032       0.00000048       0.00000098       0.02850044
Au      34.68000000      22.44000000     -32.04000000       0.00000000     196.96656900        0        0        0       0.00000000 0 0      -0.41425746       0.40339690      -2.71868206       0.00000083       0.00000080       0.02850020
Au      34.68000000      26.52000000     -32.04000000       0.00000000     196.96656900        0        0        0       0.00000000 0 0       1.51069708       0.16544744      -0.77784005       0.00000079       0.00000080       0.02850035
Au      34.68000000      30.60000000     -32.04000000       0.00000000     196.96656900        0        0        0       0.00000000 0 0       4.58450223      -0.91347897       0.07769634       0.00000064       0.00000075       0.02850001
Au      34.68000000      34.68000000     -32.04000000       0.00000000     196.96656900        0        0        0       0.00000000 0 0      -0.96652678      -0.45936163      -0.29198346      -0.00000004       0.00000018       0.02850038
Au      34.68000000      38.76000000     -32.04000000       0.00000000     196.96656900        0        0        0       0.00000000 0 0       0.48085048       0.29494327      -1.83242541      -0.00000036      -0.00000193       0.02850037
Au      38.76000000       2.04000000     -32.04000000       0.00000000     196.96656900        0        0        0       0.00000000 0 0       1.20873920       1.42165530      -0.57889168      -0.00000252      -0.00000006       0.02850028
Au      38.76000000       6.12000000     -32.04000000       0.00000000     196.96656900        0        0        0       0.00000000 0 0       3.70950577       0.22751415      -0.14395649      -0.00000257       0.00000004       0.02850025
Au      38.76000000      10.20000000     -32.04000000       0.00000000     196.96656900        0        0        0       0.00000000 0 0      -1.23606113      -2.76114778      -4.05129730      -0.00000248       0.00000004       0.02850021
Au      38.76000000      14.28000000     -32.04000000       0.00000000     196.96656900        0        0        0       0.00000000 0 0       2.12337315       1.71407023      -0.50649029      -0.00000232      -0.00000022       0.02850028
Au      38.76000000      18.36000000     -32.04000000       0.00000000     196.96656900        0        0        0       0.00000000 0 0       2.98588262       0.30805455       0.74084650      -0.00000245       0.00000119       0.02850022
Au      38.76000000      22.44000000     -32.04000000       0.00000000     196.96656900        0        0        0       0.00000000 0 0      -3.38667732      -1.32186968       1.21025165      -0.00000270       0.00000087       0.02850026
Au      38.76000000      26.52000000     -32.04000000       0.00000000     196.96656900        0        0        0       0.00000000 0 0       0.36266794      -0.07193611       4.27464759      -0.00000258       0.00000098       0.02850012
Au      38.76000000      30.60000000     -32.04000000       0.00000000     196.96656900        0        0        0       0.00000000 0 0      -0.94972306       1.10747976       1.52990388      -0.00000279       0.00000079       0.02850012
Au      38.76000000      34.68000000     -32.04000000       0.00000000     196.96656900        0        0        0       0.00000000 0 0       2.35594381       0.75191309       1.21930943      -0.00000196      -0.00000030       0.02850036
Au      38.76000000      38.76000000     -32.04000000       0.00000000     196.96656900        0        0        0       0.00000000 0 0      -2.44274936      -0.02871497       0.24468536      -0.00000223      -0.00000239       0.02850040
Au       0.00000000       0.00000000     -34.08000000       0.00000000     196.96656900        0        0        0       0.00000000 0 0       0.01867393       1.08984937       3.60566804       0.00000085       0.00000042      -0.02850362
Au       0.00000000       4.08000000     -34.08000000       0.00000000     196.96656900        0        0        0       0.00000000 0 0       0.54580388       0.71769901       2.65132296       0.00000016       0.00000006      -0.02850346
Au       0.00000000       8.16000000     -34.08000000       0.00000000     196.96656900        0        0        0       0.00000000 0 0       2.02412549      -1.81181467      -1.31310264       0.00000029      -0.00000011      -0.02850381
Au       0.00000000      12.24000000     -34.08000000       0.00000000     196.96656900        0        0        0       0.00000000 0 0      -0.37335506      -0.48993336      -1.77867038      -0.00000011      -0.00000009      -0.02850369
Au       0.00000000      16.32000000     -34.08000000       0.00000000     196.96656900        0        0        0       0.00000000 0 0      -0.64712769       4.77093205       1.45193144      -0.00000009      -0.00000043      -0.02850351
Au       0.00000000      20.40000000     -34.08000000       0.00000000     196.96656900        0        0        0       0.00000000 0 0       0.07157167       2.78741715       3.30662195       0.00000012      -0.00000107      -0.02850361
Au       0.00000000      24.48000000     -34.08000000       0.00000000     196.96656900        0        0        0       0.00000000 0 0       1.58175426       2.04364946       2.70952928       0.00000006      -0.00000106      -0.02850373
Au       0.00000000      28.56000000     -34.08000000       0.00000000     196.96656900        0        0        0       0.00000000 0 0       1.17288906       0.72096434       1.01201692       0.00000013      -0.00000121      -0.02850368
Au       0.00000000      32.64000000     -34.08000000       0.00000000     196.96656900        0        0        0       0.00000000 0 0      -0.48529537       2.26367394       0.48285883       0.00000054      -0.00000104      -0.02850368
Au       0.00000000      36.72000000     -34.08000000       0.00000000     196.96656900        0        0        0       0.00000000 0 0      -1.79755407       0.06127218       1.00346983       0.00000077       0.00000199      -0.02850381
Au       4.08000000       0.00000000     -34.08000000       0.00000000     196.96656900        0        0        0       0.00000000 0 0      -2.90231763      -0.13466986      -1.13890997       0.00000010      -0.00000038      -0.02850416
Au       4.08000000       4.08000000     -34.08000000       0.00000000     196.96656900        0        0        0       0.00000000 0 0       2.16515209       0.03804319      -0.66978273      -0.00000019      -0.00000008      -0.02850406
Au       4.08000000       8.16000000     -34.08000000       0.00000000     196.96656900        0        0        0       0.00000000 0 0      -0.52726507       2.47972925       1.01986075      -0.00000003      -0.00000019      -0.02850398
Au       4.08000000      12.24000000     -34.08000000       0.00000000     196.96656900        0        0        0       0.00000000 0 0       0.10091880      -4.84175427       0.32607700       0.00000012      -0.00000004      -0.02850420
Au       4.08000000      16.32000000     -34.08000000       0.00000000     196.96656900        0        0        0       0.00000000 0 0      -3.84582472      -0.85798707      -2.67436239       0.00000004      -0.00000051      -0.02850408
Au       4.08000000      20.40000000     -34.08000000       0.00000000     196.96656900        0        0        0       0.00000000 0 0       2.83568083      -2.72343347      -1.91668257       0.00000010      -0.00000133      -0.02850373
Au       4.08000000      24.48000000     -34.08000000       0.00000000     196.96656900        0        0        0       0.00000000 0 0      -3.98334898       1.78809562       2.07171307       0.00000016      -0.00000157      -0.02850381
Au       4.08000000      28.56000000     -34.08000000       0.00000000     196.96656900        0        0        0       0.00000000 0 0       3.24688797       2.35762887      -0.24066664      -0.00000006      -0.00000153      -0.02850379
Au       4.08000000      32.64000000     -34.08000000       0.00000000     196.96656900        0        0        0       0.00000000 0 0       0.60992961       1.22929080      -0.05367294       0.00000003      -0.00000080      -0.02850383
Au       4.08000000      36.72000000     -34.08000000       0.00000000     196.96656900        0        0        0       0.00000000 0 0      -1.53499200       2.30733207      -0.80329119       0.00000004       0.00000288      -0.02850436
Au       8.16000000       0.00000000     -34.08000000       0.00000000     196.96656900        0        0        0       0.00000000 0 0      -4.66098075       0.91840397       3.53076925       0.00000004      -0.00000055      -0.02850416
Au       8.16000000       4.08000000     -34.08000000       0.00000000     196.96656900        0        0        0       0.00000000 0 0       0.43108605       1.30209225       0.48761459       0.00000001      -0.00000006      -0.02850428
Au       8.16000000       8.16000000     -34.08000000       0.00000000     196.96656900        0        0        0       0.00000000 0 0      -1.00115328       0.72650856      -0.70063786      -0.00000006       0.00000018      -0.02850433
Au       8.16000000      12.24000000     -34.08000000       0.00000000     196.96656900        0        0        0       0.00000000 0 0      -0.54960618      -2.85867212       3.50522398       0.00000004       0.00000005      -0.02850401
Au       8.16000000      16.32000000     -34.08000000       0.00000000     196.96656900        0        0        0       0.00000000 0 0      -0.60408557       0.58636408       0.18679157      -0.00000007      -0.00000049      -0.02850417
Au       8.16000000      20.40000000     -34.08000000       0.00000000     196.96656900        0        0        0       0.00000000 0 0       4.03638800      -2.49964080       1.22866774      -0.00000008      -0.00000146      -0.02850381
Au       8.16000000      24.48000000     -34.08000000       0.00000000     196.96656900        0        0        0       0.00000000 0 0       2.21765658       0.68101674       2.42497823       0.00000005      -0.00000152      -0.02850380
Au       8.16000000      28.56000000     -34.08000000       0.00000000     196.96656900        0        0        0       0.00000000 0 0       0.42903954      -1.84620968       2.12016232       0.00000009      -0.00000124      -0.02850393
Au       8.16000000      32.64000000     -34.08000000       0.00000000     196.96656900        0        0        0       0.00000000 0 0       3.48316684       4.40631717      -0.69551179       0.00000004      -0.00000086      -0.02850405
Au       8.16000000      36.72000000     -34.08000000       0.00000000     196.96656900        0        0        0       0.00000000 0 0       4.98981112       0.60370579      -3.21189676      -0.00000007       0.00000269      -0.02850422
Au      12.24000000       0.00000000     -34.08000000       0.00000000     196.96656900        0        0        0       0.00000000 0 0      -1.16285976      -1.40841354       1.26648709       0.00000007      -0.00000047      -0.02850415
Au      12.24000000       4.08000000     -34.08000000       0.00000000     196.96656900        0        0        0       0.00000000 0 0       3.64283059      -2.76061899      -1.35749523       0.00000004      -0.00000005      -0.02850411
Au      12.24000000       8.16000000     -34.08000000       0.00000000     196.96656900        0        0        0       0.00000000 0 0       1.80899569       0.42974473      -2.06532789       0.00000001       0.00000008      -0.02850416
Au      12.24000000      12.24000000     -34.08000000       0.00000000     196.96656900        0        0        0       0.00000000 0 0      -2.43041226      -1.01007095       0.19275417      -0.00000010      -0.00000016      -0.02850401
Au      12.24000000      16.32000000     -34.08000000       0.00000000     196.96656900        0        0        0       0.00000000 0 0      -1.00051967      -4.79088243       0.29061462       0.00000001      -0.00000053      -0.02850407
Au      12.24000000      20.40000000     -34.08000000       0.00000000     196.96656900        0        0        0       0.00000000 0 0      -0.71558158      -0.80037532       0.66336804       0.00000003      -0.00000131      -0.02850390
Au      12.24000000      24.48000000     -34.08000000       0.00000000     196.96656900        0        0        0       0.00000000 0 0      -3.88656558       2.03158566      -0.32990607       0.00000008      -0.00000154      -0.02850367
Au      12.24000000      28.56000000     -34.08000000       0.00000000     196.96656900        0        0        0       0.00000000 0 0       2.81492096       4.54954562       5.30367549       0.00000010      -0.00000139      -0.02850412
Au      12.24000000      32.64000000     -34.08000000       0.00000000     196.96656900        0        0        0       0.00000000 0 0      -3.77051021      -3.08300133       0.17819741      -0.00000007      -0.00000086      -0.02850389
Au      12.24000000      36.72000000     -34.08000000       0.00000000     196.96656900        0        0        0       0.00000000 0 0       1.59842727      -2.87753223       0.11274697      -0.00000001       0.00000260      -0.02850437
Au      16.32000000       0.00000000     -34.08000000       0.00000000     196.96656900        0        0        0       0.00000000 0 0      -0.70867915       1.42753900      -0.00320126      -0.00000087      -0.00000050      -0.02850366
Au      16.32000000       4.08000000     -34.08000000       0.00000000     196.96656900        0        0        0       0.00000000 0 0      -1.88835723       0.77240619      -3.28805724      -0.00000085      -0.00000000      -0.02850374
Au      16.32000000       8.16000000     -34.08000000       0.00000000     196.96656900        0        0        0       0.00000000 0 0       5.46642821      -0.14271305       2.27423475      -0.00000089       0.00000005      -0.02850356
Au      16.32000000      12.24000000     -34.08000000       0.00000000     196.96656900        0        0        0       0.00000000 0 0       0.90898083       1.54858101       2.13382066      -0.00000076      -0.00000007      -0.02850367
Au      16.32000000      16.32000000     -34.08000000       0.00000000     196.96656900        0        0        0       0.00000000 0 0       0.34309356      -2.03543142      -0.80582786      -0.00000081      -0.00000036      -0.02850374
Au      16.32000000      20.40000000     -34.08000000       0.00000000     196.96656900        0        0        0       0.00000000 0 0      -1.15352310      -3.10749521       0.88197681      -0.00000100      -0.00000115      -0.02850355
Au      16.32000000      24.48000000     -34.08000000       0.00000000     196.96656900        0        0        0       0.00000000 0 0      -0.68228686      -1.60519981      -2.97546251      -0.00000114      -0.00000130      -0.02850344
Au      16.32000000      28.56000000     -34.08000000       0.00000000     196.96656900        0        0        0       0.00000000 0 0       0.18255596       1.25001939      -3.96380959      -0.00000111      -0.00000123      -0.02850365
Au      16.32000000      32.64000000     -34.08000000       0.00000000     196.96656900        0        0        0       0.00000000 0 0      -0.70030456      -1.13920148       3.46443300      -0.00000111      -0.00000058      -0.02850378
Au      16.32000000      36.72000000     -34.08000000       0.00000000     196.96656900        0        0        0       0.00000000 0 0      -1.78572420      -2.56528338       1.88281191      -0.00000071       0.00000265      -0.02850403
Au      20.40000000       0.00000000     -34.08000000       0.00000000     196.96656900        0        0        0       0.00000000 0 0      -1.01538893      -2.98666161       0.16397870      -0.00000146      -0.00000034      -0.02850339
Au      20.40000000       4.08000000     -34.08000000       0.00000000     196.96656900        0        0        0       0.00000000 0 0      -2.83490113      -1.92713366      -0.61102700      -0.00000197       0.00000003      -0.02850337
Au      20.40000000       8.16000000     -34.08000000       0.00000000     196.96656900        0        0        0       0.00000000 0 0       0.27446515       7.41263182       3.30170154      -0.00000190      -0.00000004      -0.02850351
Au      20.40000000      12.24000000     -34.08000000       0.00000000     196.96656900        0        0        0       0.00000000 0 0       5.11435505       0.62259121      -2.66019935      -0.00000203       0.00000010      -0.02850328
Au      20.40000000      16.32000000     -34.08000000       0.00000000     196.96656900        0        0        0       0.00000000 0 0       1.38555168      -1.95070658      -2.34244117      -0.00000165      -0.00000066      -0.02850325
Au      20.40000000      20.40000000     -34.08000000       0.00000000     196.96656900        0        0        0       0.00000000 0 0      -2.48082585      -1.15066157       0.12357412      -0.00000152      -0.00000125      -0.02850366
Au      20.40000000      24.48000000     -34.08000000       0.00000000     196.96656900        0        0        0       0.00000000 0 0       0.97548985      -2.15586606      -0.83664800      -0.00000148      -0.00000121      -0.02850373
Au      20.40000000      28.56000000     -34.08000000       0.00000000     196.96656900        0        0        0       0.00000000 0 0      -1.81191818      -2.02588057      -2.60858043      -0.00000148      -0.00000130      -0.02850365
Au      20.40000000      32.64000000     -34.08000000       0.00000000     196.96656900        0        0        0       0.00000000 0 0       0.35800559      -2.59720462       2.49876350      -0.00000139      -0.00000061      -0.02850387
Au      20.40000000      36.72000000     -34.08000000       0.00000000     196.96656900        0        0        0       0.00000000 0 0      -0.50744957      -1.49879856       3.99646146      -0.00000145       0.00000306      -0.02850389
Au      24.48000000       0.00000000     -34.08000000       0.00000000     196.96656900        0        0        0       0.00000000 0 0       2.42794284       0.48603748       0.12181598      -0.00000175      -0.00000026      -0.02850340
Au      24.48000000       4.08000000     -34.08000000       0.00000000     196.96656900        0        0        0       0.00000000 0 0      -0.11771908       2.23228175      -0.30766517      -0.00000197       0.00000000      -0.02850346
Au      24.48000000       8.16000000     -34.08000000       0.00000000     196.96656900        0        0        0       0.00000000 0 0      -2.66755141      -1.29809000      -0.28214646      -0.00000201       0.00000009      -0.02850329
Au      24.48000000      12.24000000     -34.08000000       0.00000000     196.96656900        0        0        0       0.00000000 0 0      -2.13607121      -0.07742208      -1.45803170      -0.00000206      -0.00000006      -0.02850329
Au      24.48000000      16.32000000     -34.08000000       0.00000000     196.96656900        0        0        0       0.00000000 0 0       0.82927128       0.88752330       2.04728571      -0.00000161      -0.00000076      -0.02850338
Au      24.48000000      20.40000000     -34.08000000       0.00000000     196.96656900        0        0        0       0.00000000 0 0       0.55807275      -1.76087001       1.03371203      -0.00000161      -0.00000132      -0.02850364
Au      24.48000000      24.48000000     -34.08000000       0.00000000     196.96656900        0        0        0       0.00000000 0 0      -3.21572775       0.49070685      -3.72652354      -0.00000153      -0.00000140      -0.02850366
Au      24.48000000      28.56000000     -34.08000000       0.00000000     196.96656900        0        0        0       0.00000000 0 0      -0.22326850       2.03228884      -1.62275606      -0.00000150      -0.00000135      -0.02850370
Au      24.48000000      32.64000000     -34.08000000       0.00000000     196.96656900        0        0        0       0.00000000 0 0      -1.57791640      -1.70852165      -0.66999327      -0.00000168      -0.00000071      -0.02850371
Au      24.48000000      36.72000000     -34.08000000       0.00000000     196.96656900        0        0        0       0.00000000 0 0      -0.46456394       1.99542225       0.01936420      -0.00000158       0.00000314      -0.02850386
Au      28.56000000       0.00000000     -34.08000000       0.00000000     196.96656900        0        0        0       0.00000000 0 0      -4.33503333       0.94860961       0.37343267      -0.00000162      -0.00000029      -0.02850328
Au      28.56000000       4.08000000     -34.08000000       0.00000000     196.96656900        0        0        0       0.00000000 0 0       1.06684600       2.18123823       0.48442708      -0.00000194       0.00000005      -0.02850340
Au      28.56000000       8.16000000     -34.08000000       0.00000000     196.96656900        0        0        0       0.00000000 0 0       0.43375019       1.01744911      -0.41953275      -0.00000215      -0.00000010      -0.02850343
Au      28.56000000      12.24000000     -34.08000000       0.00000000     196.96656900        0        0        0       0.00000000 0 0      -1.62627322      -2.46218435      -1.78635163      -0.00000214      -0.00000013      -0.02850336
Au      28.56000000      16.32000000     -34.08000000       0.00000000     196.96656900        0        0        0       0.00000000 0 0      -0.19121350       0.65928738      -4.34038016      -0.00000169      -0.00000066      -0.02850335
Au      28.56000000      20.40000000     -34.08000000       0.00000000     196.96656900        0        0        0       0.00000000 0 0       0.01737238      -3.46001795       4.33446446      -0.00000171      -0.00000115      -0.02850348
Au      28.56000000      24.48000000     -34.08000000       0.00000000     196.96656900        0        0        0       0.00000000 0 0      -2.52020041       3.99974663       5.18065062      -0.00000158      -0.00000121      -0.02850355
Au      28.56000000      28.56000000     -34.08000000       0.00000000     196.96656900        0        0        0       0.00000000 0 0       0.33410778       0.68346893      -1.85994653      -0.00000162      -0.00000136      -0.02850356
Au      28.56000000      32.64000000     -34.08000000       0.00000000     196.96656900        0        0        0       0.00000000 0 0       1.16057132      -0.03302469       0.66954678      -0.00000172      -0.00000063      -0.02850372
Au      28.56000000      36.72000000     -34.08000000       0.00000000     196.96656900        0        0        0       0.00000000 0 0      -2.06645592       1.26659817       2.27841512      -0.00000150       0.00000305      -0.02850403
Au      32.64000000       0.00000000     -34.08000000       0.00000000     196.96656900        0        0        0       0.00000000 0 0       4.82715114       0.48850280       1.42237006      -0.00000132       0.00000006      -0.02850364
Au      32.64000000       4.08000000     -34.08000000       0.00000000     196.96656900        0        0        0       0.00000000 0 0       0.74621755       2.04654570       0.47975629      -0.00000118      -0.00000011      -0.02850318
Au      32.64000000       8.16000000     -34.08000000       0.00000000     196.96656900        0        0        0       0.00000000 0 0       2.43359161       0.48034210      -6.66960902      -0.00000135      -0.00000001      -0.02850318
Au      32.64000000      12.24000000     -34.08000000       0.00000000     196.96656900        0        0        0       0.00000000 0 0       0.49856951       1.06730044       2.54611816      -0.00000136       0.00000004      -0.02850322
Au      32.64000000      16.32000000     -34.08000000       0.00000000     196.96656900        0        0        0       0.00000000 0 0      -0.01404439       2.78474184       1.09523576      -0.00000097      -0.00000057      -0.02850343
Au      32.64000000      20.40000000     -34.08000000       0.00000000     196.96656900        0        0        0       0.00000000 0 0       2.57635762      -0.37643265       1.12469022      -0.00000090      -0.00000122      -0.02850378
Au      32.64000000      24.48000000     -34.08000000       0.00000000     196.96656900        0        0        0       0.00000000 0 0       1.63147709       1.68621738      -2.40695477      -0.00000094      -0.00000147      -0.02850395
Au      32.64000000      28.56000000     -34.08000000       0.00000000     196.96656900        0        0        0       0.00000000 0 0      -0.42696854      -2.64725885       4.00903338      -0.00000086      -0.00000152      -0.02850359
Au      32.64000000      32.64000000     -34.08000000       0.00000000     196.96656900        0        0        0       0.00000000 0 0      -1.78453533       2.25105718       3.26503749      -0.00000128      -0.00000124      -0.02850363
Au      32.64000000      36.72000000     -34.08000000       0.00000000     196.96656900        0        0        0       0.00000000 0 0      -1.49766697       4.01414776      -4.26736011      -0.00000144       0.00000304      -0.02850379
Au      36.72000000       0.00000000     -34.08000000       0.00000000     196.96656900        0        0        0       0.00000000 0 0       0.00761254      -7.39928791       1.52530622       0.00000259       0.00000053      -0.02850374
Au      36.72000000       4.08000000     -34.08000000       0.00000000     196.96656900        0        0        0       0.00000000 0 0       0.74488962      -4.46056620      -2.35818595       0.00000329       0.00000008      -0.02850391
Au      36.72000000       8.16000000     -34.08000000       0.00000000     196.96656900        0        0        0       0.00000000 0 0      -4.28380396      -0.15098449       2.44234111       0.00000328       0.00000007      -0.02850406
Au      36.72000000      12.24000000     -34.08000000       0.00000000     196.96656900        0        0        0       0.00000000 0 0      -2.48159986       0.15223509       2.78847573       0.00000311       0.00000004      -0.02850387
Au      36.72000000      16.32000000     -34.08000000       0.00000000     196.96656900        0        0        0       0.00000000 0 0       0.60363081      -2.61060907      -1.75078811       0.00000329      -0.00000043      -0.02850375
Au      36.72000000      20.40000000     -34.08000000       0.00000000     196.96656900        0        0        0       0.00000000 0 0      -1.09082624       0.25120622      -3.62961992       0.00000335      -0.00000128      -0.02850414
Au      36.72000000      24.48000000     -34.08000000       0.00000000     196.96656900        0        0        0       0.00000000 0 0       1.94477693      -0.77004470      -0.96371528       0.00000324      -0.00000119      -0.02850396
Au      36.72000000      28.56000000     -34.08000000       0.00000000     196.96656900        0        0        0       0.00000000 0 0      -3.47772778      -0.52937553      -3.39825291       0.00000329      -0.00000126      -0.02850384
Au      36.72000000      32.64000000     -34.08000000       0.00000000     196.96656900        0        0        0       0.00000000 0 0      -1.08606902       0.42874477      -1.16884431       0.00000334      -0.00000131      -0.02850390
Au      36.72000000      36.72000000     -34.08000000       0.00000000     196.96656900        0        0        0       0.00000000 0 0       0.65781869       2.45636235      -3.04315384       0.00000261       0.00000245      -0.02850406
Au       2.04000000       2.04000000     -36.12000000       0.00000000     196.96656900        0        0        0       0.00000000 0 0       1.83643658      -3.49219027      -1.48818230      -0.00000010      -0.00000018       0.82941014
Au       2.04000000       6.12000000     -36.12000000       0.00000000     196.96656900        0        0        0       0.00000000 0 0      -1.88322440      -2.02454267      -1.28498590      -0.00000045       0.00000018       0.82941043
Au       2.04000000      10.20000000     -36.12000000       0.00000000     196.96656900        0        0        0       0.00000000 0 0       1.33166120      -2.34911493       0.62477677      -0.00000056       0.00000006       0.82941031
Au       2.04000000      14.28000000     -36.12000000       0.00000000     196.96656900        0        0        0       0.00000000 0 0      -1.62352346      -0.65187576       4.63482360      -0.00000045       0.00000001       0.82941037
Au       2.04000000      18.36000000     -36.12000000       0.00000000     196.96656900        0        0        0       0.00000000 0 0       0.38129966      -2.74253056       1.79665483      -0.00000037       0.00000053       0.82941020
Au       2.04000000      22.44000000     -36.12000000       0.00000000     196.96656900        0        0        0       0.00000000 0 0      -0.27406243      -1.87004408      -1.59756805      -0.00000054       0.00000058       0.82941031
Au       2.04000000      26.52000000     -36.12000000       0.00000000     196.96656900        0        0        0       0.00000000 0 0      -1.30464555       1.25869065      -2.31666540      -0.00000052       0.00000059       0.82941031
Au       2.04000000      30.60000000     -36.12000000       0.00000000     196.96656900        0        0        0       0.00000000 0 0       0.15383763       0.17238326      -1.53524988      -0.00000042       0.00000055       0.82941031
Au       2.04000000      34.68000000     -36.12000000       0.00000000     196.96656900        0        0        0       0.00000000 0 0       0.45546873      -0.19792412       0.58771716      -0.00000013       0.00000042       0.82940924
Au       2.04000000      38.76000000     -36.12000000       0.00000000     196.96656900        0        0        0       0.00000000 0 0       0.10707114      -1.11283117       1.11739797       0.00000042      -0.00000154       0.82941115
Au       6.12000000       2.04000000     -36.12000000       0.00000000     196.96656900        0        0        0       0.00000000 0 0      -0.43663372      -1.86210282      -2.64813152       0.00000008      -0.00000050       0.82941031
Au       6.12000000       6.12000000     -36.12000000       0.00000000     196.96656900        0        0        0       0.00000000 0 0      -1.94860916       1.26681192       0.94341948       0.00000001       0.00000002       0.82941020
Au       6.12000000      10.20000000     -36.12000000       0.00000000     196.96656900        0        0        0       0.00000000 0 0       6.50764421       2.92122218       1.77857255       0.00000005      -0.00000008       0.82941031
Au       6.12000000      14.28000000     -36.12000000       0.00000000     196.96656900        0        0        0       0.00000000 0 0       0.65390084      -1.78475692       1.95917920      -0.00000008      -0.00000005       0.82941020
Au       6.12000000      18.36000000     -36.12000000       0.00000000     196.96656900        0        0        0       0.00000000 0 0       2.36256323       2.40802939      -0.62141962      -0.00000000       0.00000062       0.82941008
Au       6.12000000      22.44000000     -36.12000000       0.00000000     196.96656900        0        0        0       0.00000000 0 0       2.15466653       0.34950232       2.04866385       0.00000006       0.00000054       0.82941025
Au       6.12000000      26.52000000     -36.12000000       0.00000000     196.96656900        0        0        0       0.00000000 0 0       1.53248945      -0.48418742       0.57171085       0.00000002       0.00000026       0.82941020
Au       6.12000000      30.60000000     -36.12000000       0.00000000     196.96656900        0        0        0       0.00000000 0 0      -0.68077410       0.59177243      -0.40853681       0.00000012       0.00000049       0.82941020
Au       6.12000000      34.68000000     -36.12000000       0.00000000     196.96656900        0        0        0       0.00000000 0 0       2.63598023      -1.27928642       2.50861632       0.00000013       0.00000085       0.82940936
Au       6.12000000      38.76000000     -36.12000000       0.00000000     196.96656900        0        0        0       0.00000000 0 0      -2.97545671       1.72028344       0.29916439       0.00000005      -0.00000167       0.82941109
Au      10.20000000       2.04000000     -36.12000000       0.00000000     196.96656900        0        0        0       0.00000000 0 0      -0.53614155       0.52809497      -0.15971239      -0.00000008      -0.00000043       0.82941031
Au      10.20000000       6.12000000     -36.12000000       0.00000000     196.96656900        0        0        0       0.00000000 0 0       1.13027005      -1.84627504      -1.73409003      -0.00000017       0.00000003       0.82941008
Au      10.20000000      10.20000000     -36.12000000       0.00000000     196.96656900        0        0        0       0.00000000 0 0      -2.43477240       0.34480708      -4.97698293      -0.00000005      -0.00000013       0.82941008
Au      10.20000000      14.28000000     -36.12000000       0.00000000     196.96656900        0        0        0       0.00000000 0 0      -2.12900396       0.35717580      -1.07394744      -0.00000002      -0.00000003       0.82941014
Au      10.20000000      18.36000000     -36.12000000       0.00000000     196.96656900        0        0        0       0.00000000 0 0       0.33229119       2.20118119      -0.40615339       0.00000001       0.00000060       0.82941020
Au      10.20000000      22.44000000     -36.12000000       0.00000000     196.96656900        0        0        0       0.00000000 0 0       2.06327628       2.16817507      -5.74618186      -0.00000008       0.00000062       0.82941020
Au      10.20000000      26.52000000     -36.12000000       0.00000000     196.96656900        0        0        0       0.00000000 0 0       2.08948025      -0.37380857      -2.05690892      -0.00000003       0.00000033       0.82941008
Au      10.20000000      30.60000000     -36.12000000       0.00000000     196.96656900        0        0        0       0.00000000 0 0      -1.49784215       0.14906201      -0.80324388      -0.00000011       0.00000045       0.82941020
Au      10.20000000      34.68000000     -36.12000000       0.00000000     196.96656900        0        0        0       0.00000000 0 0      -2.00184537       1.97454588       1.94808601      -0.00000003       0.00000084       0.82940936
Au      10.20000000      38.76000000     -36.12000000       0.00000000     196.96656900        0        0        0       0.00000000 0 0      -2.41436661       0.71857690      -2.35414802      -0.00000002      -0.00000177       0.82941127
Au      14.28000000       2.04000000     -36.12000000       0.00000000     196.96656900        0        0        0       0.00000000 0 0      -1.33338055       1.52723736      -0.37126770       0.00000002      -0.00000059       0.82941020
Au      14.28000000       6.12000000     -36.12000000       0.00000000     196.96656900        0        0        0       0.00000000 0 0      -2.30412828      -0.82094980       3.37037248       0.00000004       0.00000004       0.82941014
Au      14.28000000      10.20000000     -36.12000000       0.00000000     196.96656900        0        0        0       0.00000000 0 0      -0.84521099      -2.92681368      -3.84859620       0.00000006      -0.00000008       0.82941008
Au      14.28000000      14.28000000     -36.12000000       0.00000000     196.96656900        0        0        0       0.00000000 0 0      -1.86123655      -0.64945900       2.55760336       0.00000013       0.00000033       0.82941008
Au      14.28000000      18.36000000     -36.12000000       0.00000000     196.96656900        0        0        0       0.00000000 0 0       1.29156689      -1.13614330      -1.54565566       0.00000017       0.00000042       0.82941008
Au      14.28000000      22.44000000     -36.12000000       0.00000000     196.96656900        0        0        0       0.00000000 0 0       2.55520055       2.95564913      -0.46413634       0.00000010       0.00000048       0.82941025
Au      14.28000000      26.52000000     -36.12000000       0.00000000     196.96656900        0        0        0       0.00000000 0 0      -1.94008391      -0.07438054       1.16336792      -0.00000007       0.00000060       0.82941037
Au      14.28000000      30.60000000     -36.12000000       0.00000000     196.96656900        0        0        0       0.00000000 0 0       1.37933623       0.04756716       4.37883074      -0.00000001       0.00000046       0.82941031
Au      14.28000000      34.68000000     -36.12000000       0.00000000     196.96656900        0        0        0       0.00000000 0 0      -3.53391938      -2.67617564      -0.00739959      -0.00000035       0.00000061       0.82940936
Au      14.28000000      38.76000000     -36.12000000       0.00000000     196.96656900        0        0        0       0.00000000 0 0      -0.36542804      -0.05693990       0.96316976      -0.00000014      -0.00000132       0.82941109
Au      18.36000000       2.04000000     -36.12000000       0.00000000     196.96656900        0        0        0       0.00000000 0 0       2.63631762       1.06290396      -3.09621540       0.00000103      -0.00000049       0.82940972
Au      18.36000000       6.12000000     -36.12000000       0.00000000     196.96656900        0        0        0       0.00000000 0 0      -0.00576692       2.00535949      -1.57156398       0.00000120      -0.00000005       0.82940972
Au      18.36000000      10.20000000     -36.12000000       0.00000000     196.96656900        0        0        0       0.00000000 0 0      -1.77834072       3.12602216      -1.88210796       0.00000103      -0.00000002       0.82940972
Au      18.36000000      14.28000000     -36.12000000       0.00000000     196.96656900        0        0        0       0.00000000 0 0       0.41826415       0.81134172       1.89525544       0.00000073       0.00000008       0.82940954
Au      18.36000000      18.36000000     -36.12000000       0.00000000     196.96656900        0        0        0       0.00000000 0 0       0.61024796       3.71632455       1.17728502       0.00000059       0.00000055       0.82940996
Au      18.36000000      22.44000000     -36.12000000       0.00000000     196.96656900        0        0        0       0.00000000 0 0      -3.40925161       0.28080818      -0.87505836       0.00000095       0.00000079       0.82940984
Au      18.36000000      26.52000000     -36.12000000       0.00000000     196.96656900        0        0        0       0.00000000 0 0       1.77755994       0.40886758       0.86670102       0.00000109       0.00000081       0.82940996
Au      18.36000000      30.60000000     -36.12000000       0.00000000     196.96656900        0        0        0       0.00000000 0 0      -2.35356262      -0.44953158      -2.53516201       0.00000083       0.00000077       0.82940984
Au      18.36000000      34.68000000     -36.12000000       0.00000000     196.96656900        0        0        0       0.00000000 0 0      -3.72017140       1.32333338      -1.50245560       0.00000121       0.00000059       0.82940882
Au      18.36000000      38.76000000     -36.12000000       0.00000000     196.96656900        0        0        0       0.00000000 0 0      -1.21973462       3.38453060      -2.00641231       0.00000112      -0.00000152       0.82941091
Au      22.44000000       2.04000000     -36.12000000       0.00000000     196.96656900        0        0        0       0.00000000 0 0      -0.86706218       0.32241038      -0.29106483       0.00000116      -0.00000042       0.82940984
Au      22.44000000       6.12000000     -36.12000000       0.00000000     196.96656900        0        0        0       0.00000000 0 0       0.60046746       0.55585150       0.03148915       0.00000101      -0.00000011       0.82940978
Au      22.44000000      10.20000000     -36.12000000       0.00000000     196.96656900        0        0        0       0.00000000 0 0      -1.64558259      -1.44351009       0.43049775       0.00000114      -0.00000005       0.82940990
Au      22.44000000      14.28000000     -36.12000000       0.00000000     196.96656900        0        0        0       0.00000000 0 0      -3.68456218       0.86674480      -2.11671917       0.00000106       0.00000007       0.82940972
Au      22.44000000      18.36000000     -36.12000000       0.00000000     196.96656900        0        0        0       0.00000000 0 0      -0.91731922      -2.34362238       2.02378516       0.00000113       0.00000065       0.82940984
Au      22.44000000      22.44000000     -36.12000000       0.00000000     196.96656900        0        0        0       0.00000000 0 0      -2.88532321      -0.04919163       6.02019944       0.00000103       0.00000085       0.82941014
Au      22.44000000      26.52000000     -36.12000000       0.00000000     196.96656900        0        0        0       0.00000000 0 0       1.11384007       0.47760851      -2.44539471       0.00000107       0.00000072       0.82941002
Au      22.44000000      30.60000000     -36.12000000       0.00000000     196.96656900        0        0        0       0.00000000 0 0       1.93521009       4.40408972       2.08812177       0.00000101       0.00000079       0.82940996
Au      22.44000000      34.68000000     -36.12000000       0.00000000     196.96656900        0        0        0       0.00000000 0 0      -0.35933471      -1.23098825       1.28040165       0.00000086       0.00000081       0.82940876
Au      22.44000000      38.76000000     -36.12000000       0.00000000     196.96656900        0        0        0       0.00000000 0 0      -1.54218012       2.76933449       1.58657545       0.00000105      -0.00000181       0.82941103
Au      26.52000000       2.04000000     -36.12000000       0.00000000     196.96656900        0        0        0       0.00000000 0 0      -4.77905210       2.63929402       1.56522679       0.00000106      -0.00000042       0.82940984
Au      26.52000000       6.12000000     -36.12000000       0.00000000     196.96656900        0        0        0       0.00000000 0 0      -1.82536546       5.44292613       2.54570785       0.00000097       0.00000004       0.82940990
Au      26.52000000      10.20000000     -36.12000000       0.00000000     196.96656900        0        0        0       0.00000000 0 0      -2.98098925      -0.41880699      -3.89485384       0.00000102      -0.00000002       0.82940996
Au      26.52000000      14.28000000     -36.12000000       0.00000000     196.96656900        0        0        0       0.00000000 0 0       0.58159258       5.40108843      -1.24926684       0.00000096       0.00000002       0.82940960
Au      26.52000000      18.36000000     -36.12000000       0.00000000     196.96656900        0        0        0       0.00000000 0 0      -3.44088570      -0.08723122       1.51473050       0.00000099       0.00000077       0.82940984
Au      26.52000000      22.44000000     -36.12000000       0.00000000     196.96656900        0        0        0       0.00000000 0 0       1.39761282       0.06483654       0.68645509       0.00000103       0.00000077       0.82941008
Au      26.52000000      26.52000000     -36.12000000       0.00000000     196.96656900        0        0        0       0.00000000 0 0      -1.21679993       0.32487860      -2.18832916       0.00000100       0.00000095       0.82940984
Au      26.52000000      30.60000000     -36.12000000       0.00000000     196.96656900        0        0        0       0.00000000 0 0       1.76824184       0.21712233       2.80686222       0.00000100       0.00000068       0.82940996
Au      26.52000000      34.68000000     -36.12000000       0.00000000     196.96656900        0        0        0       0.00000000 0 0      -0.25323571      -2.18503967      -3.23294980       0.00000094       0.00000084       0.82940876
Au      26.52000000      38.76000000     -36.12000000       0.00000000     196.96656900        0        0        0       0.00000000 0 0      -1.35691401       2.09499233      -2.00092602       0.00000101      -0.00000186       0.82941103
Au      30.60000000       2.04000000     -36.12000000       0.00000000     196.96656900        0        0        0       0.00000000 0 0      -1.24440162       1.02040645       1.55528205       0.00000103      -0.00000041       0.82940984
Au      30.60000000       6.12000000     -36.12000000       0.00000000     196.96656900        0        0        0       0.00000000 0 0       2.62216328       1.56550753       0.30801706       0.00000089      -0.00000000       0.82940984
Au      30.60000000      10.20000000     -36.12000000       0.00000000     196.96656900        0        0        0       0.00000000 0 0       2.49010911       0.07643867      -2.31929849       0.00000091      -0.00000014       0.82940996
Au      30.60000000      14.28000000     -36.12000000       0.00000000     196.96656900        0        0        0       0.00000000 0 0      -1.23892450       0.27729152      -1.27423973       0.00000108      -0.00000004       0.82940984
Au      30.60000000      18.36000000     -36.12000000       0.00000000     196.96656900        0        0        0       0.00000000 0 0      -1.82856237      -2.56061537      -8.76618219       0.00000083       0.00000048       0.82940972
Au      30.60000000      22.44000000     -36.12000000       0.00000000     196.96656900        0        0        0       0.00000000 0 0      -1.64724140      -2.48420603      -3.70035174       0.00000095       0.00000077       0.82941002
Au      30.60000000      26.52000000     -36.12000000       0.00000000     196.96656900        0        0        0       0.00000000 0 0       1.17285785      -4.96088310      -4.07202478       0.00000101       0.00000074       0.82940984
Au      30.60000000      30.60000000     -36.12000000       0.00000000     196.96656900        0        0        0       0.00000000 0 0      -4.97881376       0.81771219       0.40756426       0.00000094       0.00000089       0.82940996
Au      30.60000000      34.68000000     -36.12000000       0.00000000     196.96656900        0        0        0       0.00000000 0 0       1.05690161       0.47938088      -1.10009032       0.00000095       0.00000084       0.82940888
Au      30.60000000      38.76000000     -36.12000000       0.00000000     196.96656900        0        0        0       0.00000000 0 0       1.52277259      -3.36211928       0.84271806       0.00000089      -0.00000196       0.82941091
Au      34.68000000       2.04000000     -36.12000000       0.00000000     196.96656900        0        0        0       0.00000000 0 0      -1.48626762      -5.81438588      -4.01680068       0.00000044      -0.00000022       0.82940829
Au      34.68000000       6.12000000     -36.12000000       0.00000000     196.96656900        0        0        0       0.00000000 0 0      -2.06408749      -0.98963320       1.55931843       0.00000097      -0.00000006       0.82940841
Au      34.68000000      10.20000000     -36.12000000       0.00000000     196.96656900        0        0        0       0.00000000 0 0      -1.38418524       0.92775956       1.01982733       0.00000102       0.00000001       0.82940835
Au      34.68000000      14.28000000     -36.12000000       0.00000000     196.96656900        0        0        0       0.00000000 0 0      -0.28019330      -3.03506916       3.35194333       0.00000074      -0.00000015       0.82940829
Au      34.68000000      18.36000000     -36.12000000       0.00000000     196.96656900        0        0        0       0.00000000 0 0       0.55853026      -0.94336646      -2.78557582       0.00000063       0.00000081       0.82940853
Au      34.68000000      22.44000000     -36.12000000       0.00000000     196.96656900        0        0        0       0.00000000 0 0       4.53387286       0.55328377       1.10931220       0.00000082       0.00000088       0.82940853
Au      34.68000000      26.52000000     -36.12000000       0.00000000     196.96656900        0        0        0       0.00000000 0 0      -1.18001425       0.77008746       0.88434097       0.00000076       0.00000062       0.82940853
Au      34.68000000      30.60000000     -36.12000000       0.00000000     196.96656900        0        0        0       0.00000000 0 0       1.86783692       0.74811908      -1.54046166       0.00000077       0.00000072       0.82940853
Au      34.68000000      34.68000000     -36.12000000       0.00000000     196.96656900        0        0        0       0.00000000 0 0      -2.21930683       2.39329408       0.03782639       0.00000007       0.00000018       0.82940739
Au      34.68000000      38.76000000     -36.12000000       0.00000000     196.96656900        0        0        0       0.00000000 0 0      -1.34279744      -1.74949536       0.03619576      -0.00000021      -0.00000153       0.82940960
Au      38.76000000       2.04000000     -36.12000000       0.00000000     196.96656900        0        0        0       0.00000000 0 0       0.20238205       5.48751870       2.67513658      -0.00000222       0.00000042       0.82941055
Au      38.76000000       6.12000000     -36.12000000       0.00000000     196.96656900        0        0        0       0.00000000 0 0      -1.38835956       0.10453546       2.08260747      -0.00000226       0.00000011       0.82941049
Au      38.76000000      10.20000000     -36.12000000       0.00000000     196.96656900        0        0        0       0.00000000 0 0       2.18987611      -3.41846450      -0.39460469      -0.00000207      -0.00000010       0.82941073
Au      38.76000000      14.28000000     -36.12000000       0.00000000     196.96656900        0        0        0       0.00000000 0 0      -1.76372596      -2.22904848       1.87866038      -0.00000190      -0.00000038       0.82941049
Au      38.76000000      18.36000000     -36.12000000       0.00000000     196.96656900        0        0        0       0.00000000 0 0      -1.05809764      -1.04016175      -0.39359039      -0.00000192       0.00000102       0.82941091
Au      38.76000000      22.44000000     -36.12000000       0.00000000     196.96656900        0        0        0       0.00000000 0 0      -3.08061071       2.82705944       0.32451992      -0.00000221       0.00000076       0.82941103
Au      38.76000000      26.52000000     -36.12000000       0.00000000     196.96656900        0        0        0       0.00000000 0 0       1.25220590       1.94316616       2.90583964      -0.00000211       0.00000063       0.82941091
Au      38.76000000      30.60000000     -36.12000000       0.00000000     196.96656900        0        0        0       0.00000000 0 0      -0.62606172      -1.24145068      -3.65211752      -0.00000214       0.00000045       0.82941103
Au      38.76000000      34.68000000     -36.12000000       0.00000000     196.96656900        0        0        0       0.00000000 0 0       1.13146260       1.70329780      -0.14058977      -0.00000182      -0.00000017       0.82940996
Au      38.76000000      38.76000000     -36.12000000       0.00000000     196.96656900        0        0        0       0.00000000 0 0       2.44267478      -2.01668522       0.03645748      -0.00000174      -0.00000147       0.82941175
O       20.40373700      22.12461800      -6.13746300       0.00000000      15.99900000        0        0        0       0.00000000 0 0      -0.68222864       0.02435750     -32.57558205      -1.39930892      -0.79822195       0.90840000
H       19.99843900      22.67212400      -5.38958900       0.00000000       1.00800000        0        0        0       0.00000000 0 0      -0.02200050      -0.02381212      -2.05238994       0.35830066      -1.10320020      -1.36966538
H       19.71169300      21.64406400      -6.69736100       0.00000000       1.00800000        0        0        0       0.00000000 0 0      -0.07479137      -0.04396324      -2.05238994       0.85239279       0.82941329       1.16288841
O       20.77165600      23.30431400       8.16123800       0.00000000      15.99900000        0        0        0       0.00000000 0 0       0.90611716      -0.21116217     -32.57558205       0.16230181       0.46404442      -0.62156558
H       21.24649400      24.18616400       8.01906500       0.00000000       1.00800000        0        0        0       0.00000000 0 0       0.10433789       0.16177759      -2.05238994      -1.10739613      -1.55674577      -0.20442161
H       20.20632300      23.02600400       7.36985700       0.00000000       1.00800000        0        0        0       0.00000000 0 0      -0.07232682      -0.23191846      -2.05238994       1.18414521       1.15920377       1.19666779
O       20.07506000      19.06982700      -8.08885100       0.00000000      15.99900000        0        0        0       0.00000000 0 0       1.01239816      -0.16916394     -32.57558205       0.64272928      -0.09541520      -0.37145308
H       20.93051900      19.29443200      -8.57985700       0.00000000       1.00800000        0        0        0       0.00000000 0 0      -0.09895260       0.01679293      -2.05238994      -1.41471934      -0.93804455       0.97899300
H       20.08319200      18.14427400      -7.68065100       0.00000000       1.00800000        0        0        0       0.00000000 0 0       0.09945949      -0.26407695      -2.05238994       0.54974377       1.18759775      -0.65867424
O       22.28121100      20.06170000      -1.72487000       0.00000000      15.99900000        0        0        0       0.00000000 0 0      -0.86220915      -1.44204092     -32.57558205       0.00887477       0.40380913       3.10901165
H       21.57059400      20.77761800      -1.80120300       0.00000000       1.00800000        0        0        0       0.00000000 0 0      -0.12672504      -0.18979680      -2.05238994       0.75156248      -1.96915424      -0.03289694
H       21.95115400      19.22231000      -1.26679600       0.00000000       1.00800000        0        0        0       0.00000000 0 0       0.18743674      -0.26946172      -2.05238994      -0.01701936       1.95751488      -0.43803364
O       17.06156700      18.33838200       2.42945400       0.00000000      15.99900000        0        0        0       0.00000000 0 0      -0.16296577      -0.98097883     -32.57558205       0.11065167       1.56962323      -0.17837584
H       16.46114800      19.15152800       2.38904300       0.00000000       1.00800000        0        0        0       0.00000000 0 0       0.15729126      -0.19974573      -2.05238994       1.99200428      -1.17932773      -0.07198322
H       17.96082200      18.52977000       2.85141900       0.00000000       1.00800000        0        0        0       0.00000000 0 0      -0.22617017       0.07066671      -2.05238994      -2.18548799       0.21603417      -0.48017725
O       26.35547500      18.52108800       4.19158000       0.00000000      15.99900000        0        0        0       0.00000000 0 0       0.12590382      -0.79512169     -32.57558205      -1.15204191       0.43864232      -0.57046264
H       26.44669500      19.34784300       3.61582100       0.00000000       1.00800000        0        0        0       0.00000000 0 0      -0.15177614       0.20323653      -2.05238994      -0.38751549      -1.18234515       1.44727802
H       25.39400500      18.29116500       4.40618400       0.00000000       1.00800000        0        0        0       0.00000000 0 0      -0.15140330      -0.13782286      -2.05238994       1.63641524       0.56638300      -0.78583926
O       23.04188400      23.24815500      -6.16994600       0.00000000      15.99900000        0        0        0       0.00000000 0 0       0.31361671       0.80485062     -32.57558205       0.77664447       0.56881845      -0.53235579
H       22.19272300      23.28871700      -6.71823800       0.00000000       1.00800000        0        0        0       0.00000000 0 0      -0.09844558      -0.00312533      -2.05238994       1.22578490       0.45531878       0.52662933
H       23.78955800      23.81085400      -6.55425900       0.00000000       1.00800000        0        0        0       0.00000000 0 0       0.00696627       0.09198864      -2.05238994      -1.77943230      -0.91080952       0.16444197
O       18.14552000      20.06612300       0.90021400       0.00000000      15.99900000        0        0        0       0.00000000 0 0       1.13114005      -0.10379387     -32.57558205      -1.02043426       0.27713037       1.42827034
H       17.27414600      20.07292900       0.38640000       0.00000000       1.00800000        0        0        0       0.00000000 0 0       0.15180413       0.20279897      -2.05238994       1.65370357       0.70527375       1.37722588
H       18.34511900      20.94766000       1.35452200       0.00000000       1.00800000        0        0        0       0.00000000 0 0      -0.19976197       0.07477622      -2.05238994      -1.19301569      -1.10514963      -1.53375745
O       22.22170400      21.66778500       6.06437300       0.00000000      15.99900000        0        0        0       0.00000000 0 0      -0.58399345      -0.14862006     -32.57558205      -0.41744578      -0.49818769       0.06997758
H       22.38102500      20.79193900       6.54484400       0.00000000       1.00800000        0        0        0       0.00000000 0 0       0.09258794       0.11850433      -2.05238994      -1.02286959       1.26306427      -0.91677141
H       21.25105400      21.81596600       5.82101400       0.00000000       1.00800000        0        0        0       0.00000000 0 0       0.03716064      -0.36581836      -2.05238994       1.70980716      -1.07909191       0.83257318
O       20.61966800      26.28842900       3.29562700       0.00000000      15.99900000        0        0        0       0.00000000 0 0       0.11496917       0.38678905     -32.57558205      -0.48555446       0.47877622       0.15165524
H       19.76168200      26.17248500       2.77240600       0.00000000       1.00800000        0        0        0       0.00000000 0 0       0.15374737      -0.22390328      -2.05238994       0.82880366       0.84258306       0.70427859
H       20.68296400      27.18476700       3.76029300       0.00000000       1.00800000        0        0        0       0.00000000 0 0       0.01931153       0.12765436      -2.05238994      -0.60573184      -1.44138145      -1.02163959
O       19.91815600      15.22613900       6.69971100       0.00000000      15.99900000        0        0        0       0.00000000 0 0       0.24575058       0.58727277     -32.57558205      -1.00982499      -1.72644746       0.09727362
H       19.24587000      15.46989000       7.41522500       0.00000000       1.00800000        0        0        0       0.00000000 0 0      -0.28969903      -0.05655359      -2.05238994       1.21917379      -0.91942555      -1.18465757
H       19.88661600      14.24835700       6.44224100       0.00000000       1.00800000        0        0        0       0.00000000 0 0       0.15541997      -0.15517476      -2.05238994      -0.60103673       1.55727947       0.89366269
O       13.19146900      21.22674700       0.17941300       0.00000000      15.99900000        0        0        0       0.00000000 0 0       0.39844667       0.85600369     -32.57558205       0.28624529       0.73608685       0.46198231
H       14.05042500      21.75440900       0.09509300       0.00000000       1.00800000        0        0        0       0.00000000 0 0       0.33249165       0.17435518      -2.05238994      -1.80283928      -0.47471926       0.30148017
H       12.46328100      21.72979100       0.66934400       0.00000000       1.00800000        0        0        0       0.00000000 0 0       0.02659986      -0.17517778      -2.05238994       1.59300911      -0.44553873      -0.72660077
O       23.65416100      20.55152200       2.62708100       0.00000000      15.99900000        0        0        0       0.00000000 0 0      -0.66332541      -0.62512624     -32.57558205       0.78947490       1.81584048       2.40920997
H       23.75569300      21.52595700       2.87909600       0.00000000       1.00800000        0        0        0       0.00000000 0 0      -0.01179527       0.20940033      -2.05238994       0.13988723      -1.68971586       0.47355160
H       24.20774700      19.93254300       3.20479300       0.00000000       1.00800000        0        0        0       0.00000000 0 0      -0.06298500       0.27389357      -2.05238994      -0.98109603       1.48010087      -0.29029596
O       20.47015100      20.25399100       3.08860200       0.00000000      15.99900000        0        0        0       0.00000000 0 0       1.39876930       1.29218978     -32.57558205      -1.04824841       1.11886072      -0.31540862
H       20.77190000      21.21950800       3.09678000       0.00000000       1.00800000        0        0        0       0.00000000 0 0      -0.08479808      -0.18974268      -2.05238994      -1.16792858      -1.64968777       0.03891754
H       19.46536700      20.15282400       3.02929300       0.00000000       1.00800000        0        0        0       0.00000000 0 0      -0.22459302       0.05796816      -2.05238994       1.78327870       1.14427209       0.04310993
O       14.88806200      14.97250200       3.07451900       0.00000000      15.99900000        0        0        0       0.00000000 0 0      -0.68870330      -0.49523198     -32.57558205      -1.27911913      -0.00197493      -0.15576179
H       14.19063400      15.69519700       3.19555000       0.00000000       1.00800000        0        0        0       0.00000000 0 0       0.04964468       0.13946180      -2.05238994       0.60935760      -1.76932764      -0.44215247
H       14.51691900      14.12877800       2.65771500       0.00000000       1.00800000        0        0        0       0.00000000 0 0       0.05294510       0.02089146      -2.05238994      -0.08210307       1.69934618       0.81733942
O       16.56326600      15.13677100      -1.25247100       0.00000000      15.99900000        0        0        0       0.00000000 0 0      -0.17242529       0.28960650     -32.57558205      -0.17267382      -1.06266117      -0.23021835
H       17.18004300      14.74708600      -0.55170300       0.00000000       1.00800000        0        0        0       0.00000000 0 0       0.00229143       0.20106303      -2.05238994      -1.13124299       0.09168234      -0.74345869
H       16.06279400      14.43128500      -1.77702900       0.00000000       1.00800000        0        0        0       0.00000000 0 0      -0.13524529       0.08035911      -2.05238994       1.00524771       0.66900253       1.14389658
O       12.34801600      21.16626400       3.87750800       0.00000000      15.99900000        0        0        0       0.00000000 0 0      -0.58240277      -0.36933631     -32.57558205       0.27417779      -0.09358811      -0.57233870
H       12.35362400      20.15730900       3.80455500       0.00000000       1.00800000        0        0        0       0.00000000 0 0       0.09815421      -0.10154936      -2.05238994       0.76712525       1.82842135       0.26727408
H       13.27448400      21.57136700       3.84765000       0.00000000       1.00800000        0        0        0       0.00000000 0 0       0.16977594      -0.06513579      -2.05238994      -1.55527842      -1.38216138       0.10975845
O       16.50813500      23.70179800      -0.14732300       0.00000000      15.99900000        0        0        0       0.00000000 0 0       0.65602854      -0.24441648     -32.57558205      -0.68583870      -0.55857259       1.06829095
H       15.66657400      23.34963800       0.28982900       0.00000000       1.00800000        0        0        0       0.00000000 0 0      -0.17704767       0.11716719      -2.05238994       2.02417755       0.32457155      -0.11073494
H       17.35110400      23.44140300       0.34759100       0.00000000       1.00800000        0        0        0       0.00000000 0 0      -0.08868601      -0.28990949      -2.05238994      -2.11532354       0.05153421      -0.40856624
O       13.24619500      18.01296700      -0.43027700       0.00000000      15.99900000        0        0        0       0.00000000 0 0      -0.44908413      -0.17219511     -32.57558205      -2.54671645       1.22711229      -0.34503818
H       12.66593200      18.22132000      -1.23229100       0.00000000       1.00800000        0        0        0       0.00000000 0 0      -0.16437415       0.09543422      -2.05238994       0.79556006       0.29468486       1.89490390
H       13.31768400      18.78533900       0.21908800       0.00000000       1.00800000        0        0        0       0.00000000 0 0       0.04741747      -0.04603597      -2.05238994      -0.54682696      -0.88404834      -1.78220105
O       24.67067000      24.38641500       0.03340500       0.00000000      15.99900000        0        0        0       0.00000000 0 0      -0.47440275       0.52129227     -32.57558205      -0.70753676       1.19805670       2.10429406
H       24.54171600      25.20101400       0.61918800       0.00000000       1.00800000        0        0        0       0.00000000 0 0       0.07440998       0.20525238      -2.05238994      -0.39388785      -2.00073409      -0.48033690
H       24.40113500      23.52396700       0.48824200       0.00000000       1.00800000        0        0        0       0.00000000 0 0      -0.05974270       0.07270093      -2.05238994       0.35120511       1.99540710      -0.54542702
O       21.38044600      25.82148400      -5.67946900       0.00000000      15.99900000        0        0        0       0.00000000 0 0       0.13693164      -0.63020477     -32.57558205       0.32665509       0.35379481       1.06380141
H       20.98735800      25.46906700      -4.81655100       0.00000000       1.00800000        0        0        0       0.00000000 0 0       0.08982035      -0.03321767      -2.05238994       1.40973294       0.88028383      -1.16261888
H       22.28270900      26.26137300      -5.55392100       0.00000000       1.00800000        0        0        0       0.00000000 0 0       0.14639266       0.17975006      -2.05238994      -1.64367485      -0.94279647       0.39345205
O       18.47338900      25.33329200      -6.49175700       0.00000000      15.99900000        0        0        0       0.00000000 0 0      -0.02889565       1.09103851     -32.57558205       0.40023583       0.11617534       0.47470635
H       18.93000000      24.79887000      -5.76426600       0.00000000       1.00800000        0        0        0       0.00000000 0 0       0.18897007      -0.05384823      -2.05238994      -0.29391831       1.87709141      -1.29204631
H       18.91867800      26.22427500      -6.66841800       0.00000000       1.00800000        0        0        0       0.00000000 0 0       0.07303464      -0.06833804      -2.05238994      -0.19287297      -1.82827783       0.74530613
O       23.66620700      19.46417700       0.74378900       0.00000000      15.99900000        0        0        0       0.00000000 0 0       0.08773060       0.44255047     -32.57558205      -0.04855376      -1.46948075      -1.67562187
H       23.83183600      20.34795800       0.28028000       0.00000000       1.00800000        0        0        0       0.00000000 0 0      -0.18450033       0.11718688      -2.05238994       0.61962909      -1.98409760       1.05412006
H       24.48921100      19.09669200       1.20309600       0.00000000       1.00800000        0        0        0       0.00000000 0 0       0.06828596       0.07226058      -2.05238994      -1.29725087       1.59020925      -1.45487738
O       22.14388600      15.53744500      -1.81244300       0.00000000      15.99900000        0        0        0       0.00000000 0 0       0.91581998      -0.56392815     -32.57558205       0.26419353       2.71890903      -0.30273223
H       21.55477300      16.35635700      -1.88775700       0.00000000       1.00800000        0        0        0       0.00000000 0 0      -0.03976131       0.08099966      -2.05238994       1.24159479      -1.32472324      -0.17738929
H       23.08728800      15.75310500      -1.51778200       0.00000000       1.00800000        0        0        0       0.00000000 0 0      -0.01815497      -0.13508537      -2.05238994      -1.75792408      -0.13436610      -0.63484210
O       16.78470700      23.58989000      -5.07721300       0.00000000      15.99900000        0        0        0       0.00000000 0 0      -0.72483684      -0.15483258     -32.57558205       2.42623973       2.31354451       0.66714424
H       16.98534200      23.80162300      -6.04585100       0.00000000       1.00800000        0        0        0       0.00000000 0 0      -0.33092305      -0.18843872      -2.05238994      -0.23172161       0.07414722       1.74336183
H       17.59798900      23.65809200      -4.47949800       0.00000000       1.00800000        0        0        0       0.00000000 0 0       0.16829674      -0.08338341      -2.05238994      -1.27431846       0.56078523      -1.03523874
O       15.14502800      20.60065600      -6.29010200       0.00000000      15.99900000        0        0        0       0.00000000 0 0      -0.35731363       0.52547777     -32.57558205      -1.85140502       0.65568310      -2.96885276
H       14.15411500      20.52643100      -6.47964200       0.00000000       1.00800000        0        0        0       0.00000000 0 0       0.07350708       0.08986405      -2.05238994       1.92283797      -0.36003765      -0.37452954
H       15.70918600      20.62000000      -7.12956300       0.00000000       1.00800000        0        0        0       0.00000000 0 0       0.08869495       0.08222443      -2.05238994      -1.59918857       0.04633692       1.24732125
O       15.22727000      17.72349500       0.74964400       0.00000000      15.99900000        0        0        0       0.00000000 0 0       0.23813288       0.10923004     -32.57558205       0.40120241      -0.85584873       1.37982464
H       15.18053000      16.73393900       0.54485800       0.00000000       1.00800000        0        0        0       0.00000000 0 0       0.05143176      -0.10640029      -2.05238994      -0.50269109       1.88523686       0.64351928
H       14.79052800      17.96777500       1.62880700       0.00000000       1.00800000        0        0        0       0.00000000 0 0       0.07351726       0.16567221      -2.05238994       0.83088708      -1.37317502      -1.49469900
O       16.60780200      21.95339500       2.17961000       0.00000000      15.99900000        0        0        0       0.00000000 0 0      -0.02313159       0.59630060     -32.57558205      -0.51508719      -0.59078616       0.72115505
H       16.61385700      22.04970700       3.18660000       0.00000000       1.00800000        0        0        0       0.00000000 0 0       0.21394310       0.11865162      -2.05238994      -0.52417415      -0.47315603      -1.39466131
H       15.94204800      21.26639800       1.85074900       0.00000000       1.00800000        0        0        0       0.00000000 0 0       0.09641439      -0.27148037      -2.05238994       0.83023775       1.00028181       1.11705756
O       26.09965200      24.10666300       5.88203700       0.00000000      15.99900000        0        0        0       0.00000000 0 0      -0.01335447       1.13658883     -32.57558205       0.32527941       0.42710492      -1.02821231
H       25.40082900      24.83201600       5.97612300       0.00000000       1.00800000        0        0        0       0.00000000 0 0       0.07172238       0.04031646      -2.05238994       0.96707016      -1.48326516      -0.53053254
H       26.25154700      23.82412200       4.92264100       0.00000000       1.00800000        0        0        0       0.00000000 0 0       0.13733699       0.22057900      -2.05238994      -0.61204225       1.01966858       1.66580439
O       26.39705800      23.10135100      -0.30496000       0.00000000      15.99900000        0        0        0       0.00000000 0 0       0.37988194       0.22217993     -32.57558205       3.15745783       0.08284408      -2.00106525
H       26.70373700      22.81276600      -1.22474800       0.00000000       1.00800000        0        0        0       0.00000000 0 0      -0.04604146       0.09950869      -2.05238994      -0.11306031       1.04449904       1.41002369
H       26.81896600      23.96875200      -0.00007800       0.00000000       1.00800000        0        0        0       0.00000000 0 0      -0.04866131      -0.03175740      -2.05238994      -0.71808457      -1.25388241      -1.47492874
O       20.65722200      24.19917500      -1.11456000       0.00000000      15.99900000        0        0        0       0.00000000 0 0       0.37419328       0.05247142     -32.57558205      -1.21900392      -0.33011681       0.09944260
H       20.11307300      24.23949700      -0.26272800       0.00000000       1.00800000        0        0        0       0.00000000 0 0       0.08962832       0.07098725      -2.05238994       0.73242629      -0.85788286      -1.47883379
H       20.71947500      23.26670700      -1.50182100       0.00000000       1.00800000        0        0        0       0.00000000 0 0       0.10862535      -0.04608564      -2.05238994      -0.28673303       1.66886330       1.27581966
O       22.56791100      14.23281800       5.55687200       0.00000000      15.99900000        0        0        0       0.00000000 0 0      -0.89000203      -1.08017663     -32.57558205      -0.51839602      -0.51577950       0.85395837
H       22.64946700      14.61542200       6.48977400       0.00000000       1.00800000        0        0        0       0.00000000 0 0       0.33662216      -0.32705608      -2.05238994      -0.82367766      -0.92628527      -1.48150849
H       21.72652600      13.68714600       5.42399600       0.00000000       1.00800000        0        0        0       0.00000000 0 0       0.19447875      -0.10924482      -2.05238994       1.37251449       1.10972834       0.88447452
O       19.02824700      25.27373900       6.77789600       0.00000000      15.99900000        0        0        0       0.00000000 0 0      -0.07312453      -0.65537003     -32.57558205       0.31082925       1.20020342      -0.16110626
H       18.32645600      26.00064700       6.72852600       0.00000000       1.00800000        0        0        0       0.00000000 0 0      -0.03721636      -0.22414931      -2.05238994       1.66592503      -0.77976531       0.22740194
H       19.95191900      25.62773900       6.98968900       0.00000000       1.00800000        0        0        0       0.00000000 0 0      -0.07276779      -0.13522873      -2.05238994      -1.83832026      -0.01109934      -0.27353710
O       16.50809700      18.17743700       6.84217300       0.00000000      15.99900000        0        0        0       0.00000000 0 0      -0.33492438       0.17492150     -32.57558205      -1.20880055      -0.23795824       1.01706529
H       15.70069200      18.53058500       7.33888900       0.00000000       1.00800000        0        0        0       0.00000000 0 0      -0.27211342      -0.10232156      -2.05238994       1.27036059      -1.12290049      -0.88948917
H       16.40168900      17.21653900       6.54435500       0.00000000       1.00800000        0        0        0       0.00000000 0 0       0.06586201      -0.18862631      -2.05238994      -0.19817440       1.78923953       0.46302962
O       26.92555600      16.44503600       0.99185300       0.00000000      15.99900000        0        0        0       0.00000000 0 0      -0.26342886       0.33157132     -32.57558205       1.78163838       1.14021647      -0.90824771
H       26.73694200      15.94017600       0.13576700       0.00000000       1.00800000        0        0        0       0.00000000 0 0      -0.01359444       0.04135967      -2.05238994      -0.27946523       1.53989601       1.38023448
H       26.25817500      17.18356600       1.17218400       0.00000000       1.00800000        0        0        0       0.00000000 0 0      -0.00554167       0.06429040      -2.05238994       0.95184857      -1.67906523      -1.09239745
O       22.75539900      24.33896900       1.68501500       0.00000000      15.99900000        0        0        0       0.00000000 0 0       1.30661232       0.18451136     -32.57558205      -1.37602484      -0.07324212       0.88852048
H       22.02144700      24.14866500       1.01535800       0.00000000       1.00800000        0        0        0       0.00000000 0 0      -0.19202413      -0.14419342      -2.05238994       0.88684970       0.78471041       1.32954228
H       22.40937000      24.72358700       2.55431100       0.00000000       1.00800000        0        0        0       0.00000000 0 0       0.00977875       0.09907407      -2.05238994      -0.28274179      -0.43386814      -1.68567824
O       18.71748400      13.07480200      -2.72350500       0.00000000      15.99900000        0        0        0       0.00000000 0 0      -0.00816448      -0.03006936     -32.57558205      -1.35300064      -0.02534673       0.83400249
H       18.34368700      12.22317200      -3.12143100       0.00000000       1.00800000        0        0        0       0.00000000 0 0       0.13143818      -0.25751783      -2.05238994       0.40777421       1.68665564       1.06835043
H       18.04185900      13.58309900      -2.16807100       0.00000000       1.00800000        0        0        0       0.00000000 0 0      -0.04733970       0.00743029      -2.05238994       0.82428622      -1.78170586      -0.69226485
O       23.24857000      28.07989100       0.75219300       0.00000000      15.99900000        0        0        0       0.00000000 0 0      -0.76202093       0.66227190     -32.57558205      -0.73424542      -0.69416475      -0.08232835
H       22.27723700      28.36222300       0.76419500       0.00000000       1.00800000        0        0        0       0.00000000 0 0      -0.21387007      -0.22614848      -2.05238994       1.55666161      -1.04971325      -0.04940055
H       23.36959700      27.07608400       0.71955200       0.00000000       1.00800000        0        0        0       0.00000000 0 0      -0.28096069       0.32164126      -2.05238994      -0.89954489       1.56507838       0.13142282
O       24.00178700      18.91390800       7.31310900       0.00000000      15.99900000        0        0        0       0.00000000 0 0      -0.01867033      -0.17945863     -32.57558205      -0.02298369      -0.86632991      -0.48839349
H       24.38662300      18.75487700       6.39117900       0.00000000       1.00800000        0        0        0       0.00000000 0 0      -0.00252794       0.23788734      -2.05238994      -0.45265442      -0.22982040       1.71805632
H       23.92135400      18.06728000       7.86091900       0.00000000       1.00800000        0        0        0       0.00000000 0 0      -0.10535763       0.09355291      -2.05238994       0.36343050       1.20112550      -1.32346225
O       18.07585900      18.04131700      -3.85347900       0.00000000      15.99900000        0        0        0       0.00000000 0 0       0.01607812      -0.30227483     -32.57558205       2.00237179      -2.65768385       0.51414925
H       17.50823100      17.23362500      -4.07432900       0.00000000       1.00800000        0        0        0       0.00000000 0 0       0.05442528      -0.03980104      -2.05238994       1.55729651       1.13233602      -0.17224500
H       18.74341100      18.26750800      -4.57912000       0.00000000       1.00800000        0        0        0       0.00000000 0 0       0.34018736       0.09614180      -2.05238994      -1.11599493      -0.89501727       0.86798066
O       25.98138700      21.38370700       1.04110500       0.00000000      15.99900000        0        0        0       0.00000000 0 0       0.42389701       0.79598072     -32.57558205       0.24740189       0.27908051       4.16327190
H       25.63273000      20.96398500       1.89293500       0.00000000       1.00800000        0        0        0       0.00000000 0 0       0.10398494       0.21439267      -2.05238994       1.06535602       0.37778336      -1.29616570
H       26.99061200      21.36570600       0.97414600       0.00000000       1.00800000        0        0        0       0.00000000 0 0      -0.23081663       0.09815118      -2.05238994      -1.85260272       0.03830676       0.47048020
O       20.48609900      23.95365100      -7.91299200       0.00000000      15.99900000        0        0        0       0.00000000 0 0       0.12649287      -0.28518677     -32.57558205       0.07762143      -0.59984553      -1.33140397
H       19.60691400      23.66323700      -7.50551500       0.00000000       1.00800000        0        0        0       0.00000000 0 0      -0.10349350       0.40646991      -2.05238994       1.64912391       0.33777586      -1.19293094
H       20.90183800      23.24648900      -8.50496000       0.00000000       1.00800000        0        0        0       0.00000000 0 0      -0.18136127       0.21774177      -2.05238994      -1.34917605       0.97548592       1.07891726
O       14.81073400      23.53719400      -6.02696300       0.00000000      15.99900000        0        0        0       0.00000000 0 0       0.33115243       0.47864533     -32.57558205      -2.53423977       0.18487495      -0.53332025
H       14.25581200      22.69599300      -6.11520200       0.00000000       1.00800000        0        0        0       0.00000000 0 0       0.20507769       0.12696168      -2.05238994       0.75956470       1.42434824       0.51200622
H       14.37852200      24.23775800      -5.43896300       0.00000000       1.00800000        0        0        0       0.00000000 0 0       0.15669362      -0.30721412      -2.05238994       0.42326483      -1.64265895      -0.90622461
O       16.52985000      24.06454600       5.92821400       0.00000000      15.99900000        0        0        0       0.00000000 0 0       0.18255576       0.45780442     -32.57558205       0.55156898       0.32799974       0.03871532
H       17.39104000      24.02730000       5.39877300       0.00000000       1.00800000        0        0        0       0.00000000 0 0      -0.07216819       0.29316868      -2.05238994      -1.28194952       0.63283360       1.46750307
H       16.59660200      24.64498600       6.75403300       0.00000000       1.00800000        0        0        0       0.00000000 0 0      -0.17508066       0.16298209      -2.05238994       0.48270750      -1.07202339      -1.60392165
O       15.53253200      27.16466700       0.01851300       0.00000000      15.99900000        0        0        0       0.00000000 0 0       0.50619394      -0.61730441     -32.57558205       0.06222692      -0.18712533      -1.20253885
H       15.09114400      27.62649700      -0.76585500       0.00000000       1.00800000        0        0        0       0.00000000 0 0       0.13961590      -0.01561287      -2.05238994       0.88737673      -1.24968827       1.10800743
H       15.91985300      26.26104500      -0.21979700       0.00000000       1.00800000        0        0        0       0.00000000 0 0      -0.23644708       0.05598415      -2.05238994      -0.86709344       1.21848989       0.06766480
O       16.12105400      27.37012100      -3.64337500       0.00000000      15.99900000        0        0        0       0.00000000 0 0      -0.24889259      -1.20012744     -32.57558205       0.55603027      -0.04648601       0.89983714
H       15.91453200      26.71012800      -2.90506500       0.00000000       1.00800000        0        0        0       0.00000000 0 0      -0.17942581      -0.20512954      -2.05238994       0.85432482       1.19772077      -1.07000124
H       16.94601400      27.92593400      -3.45937500       0.00000000       1.00800000        0        0        0       0.00000000 0 0       0.15666662       0.11129655      -2.05238994      -1.41452312      -1.24636924       0.14595816
O       20.28455200      12.83718900       2.29395300       0.00000000      15.99900000        0        0        0       0.00000000 0 0       0.17331907      -0.55617838     -32.57558205       1.20105982      -0.97329879       0.07784070
H       20.64327000      12.87599300       3.23902400       0.00000000       1.00800000        0        0        0       0.00000000 0 0       0.16045364      -0.22935406      -2.05238994      -0.17970967      -0.21936280      -1.97329330
H       21.00769800      12.91975900       1.59139700       0.00000000       1.00800000        0        0        0       0.00000000 0 0       0.11498036       0.32427405      -2.05238994      -0.60909158      -0.02811036       1.67606091
O       23.41204300      23.86419400       4.77875700       0.00000000      15.99900000        0        0        0       0.00000000 0 0      -0.01343591       0.36933881     -32.57558205      -0.38412675       0.35421601      -1.79542565
H       23.85773600      24.70005800       4.42374700       0.00000000       1.00800000        0        0        0       0.00000000 0 0      -0.03435186       0.15857354      -2.05238994      -0.96677291      -1.68282866      -0.01108804
H       23.08442200      23.24776300       4.04662300       0.00000000       1.00800000        0        0        0       0.00000000 0 0      -0.06992240       0.01776662      -2.05238994       0.98452175       1.52011812       0.88879615
O       24.52034600      14.86765200      -3.62748600       0.00000000      15.99900000        0        0        0       0.00000000 0 0      -0.36606878      -0.09749555     -32.57558205      -1.66769350       0.83727574      -0.83751881
H       23.71360500      15.25205200      -4.10156300       0.00000000       1.00800000        0        0        0       0.00000000 0 0       0.09418449       0.10759906      -2.05238994       0.92124575      -1.73419797       0.82929897
H       24.32884900      13.98603600      -3.16985600       0.00000000       1.00800000        0        0        0       0.00000000 0 0       0.04676669      -0.08968522      -2.05238994      -0.26274776       1.69544089      -1.10563838
O       14.49040500      19.81695800       4.93700900       0.00000000      15.99900000        0        0        0       0.00000000 0 0       0.03575710      -0.33154099     -32.57558205       1.05501533      -0.47342157      -0.54441166
H       14.85720100      18.87727500       4.86085600       0.00000000       1.00800000        0        0        0       0.00000000 0 0       0.01422894       0.13922312      -2.05238994       0.05512163       1.96404243       0.11121202
H       15.11261000      20.51780900       4.55620200       0.00000000       1.00800000        0        0        0       0.00000000 0 0       0.03514496       0.07232658      -2.05238994      -0.55739790      -1.72479951       0.75322187
O       25.11760000      24.96632900      -3.95366700       0.00000000      15.99900000        0        0        0       0.00000000 0 0      -1.46199985       0.23860151     -32.57558205       0.10771072      -0.20015429      -1.03221369
H       24.39529300      24.45606200      -4.44483300       0.00000000       1.00800000        0        0        0       0.00000000 0 0      -0.15148886       0.00898506      -2.05238994       1.41547632       0.71031386       0.22722632
H       25.91978200      25.17542500      -4.53343100       0.00000000       1.00800000        0        0        0       0.00000000 0 0      -0.02894534      -0.06688965      -2.05238994      -1.71111655      -0.64745808       0.65352410
O       22.68709200      14.62745300       2.57039400       0.00000000      15.99900000        0        0        0       0.00000000 0 0      -0.19743924      -0.86135031     -32.57558205       0.33622712      -1.23369217       0.75955945
H       22.58483300      13.79712800       3.13911700       0.00000000       1.00800000        0        0        0       0.00000000 0 0      -0.07105775       0.15224714      -2.05238994       0.98549455       1.85144448      -0.73802298
H       23.55238600      15.12232400       2.74276500       0.00000000       1.00800000        0        0        0       0.00000000 0 0       0.01747817      -0.07453380      -2.05238994      -1.17321086      -1.05364382       0.09527829
O       17.01410100      17.32631100       4.42856700       0.00000000      15.99900000        0        0        0       0.00000000 0 0      -0.21618247      -0.34008886     -32.57558205      -0.07022673      -2.24179935       1.61372578
H       17.52106300      16.45383900       4.50017000       0.00000000       1.00800000        0        0        0       0.00000000 0 0      -0.19403074       0.08667222      -2.05238994      -1.46029472       0.94916916      -0.49046931
H       16.07964600      17.21294600       4.05804600       0.00000000       1.00800000        0        0        0       0.00000000 0 0      -0.06652963       0.06781489      -2.05238994       2.12453103      -0.60607040       0.39706516
O       24.72726500      15.84755000       4.61169300       0.00000000      15.99900000        0        0        0       0.00000000 0 0      -0.50058426      -0.51857758     -32.57558205      -0.16173416      -0.12445836       0.56312406
H       24.42996400      14.88693600       4.72203200       0.00000000       1.00800000        0        0        0       0.00000000 0 0       0.19200625      -0.05258277      -2.05238994      -0.37135029       1.94424248       0.62679172
H       24.22498800      16.48961600       5.21070200       0.00000000       1.00800000        0        0        0       0.00000000 0 0       0.09298897      -0.13105520      -2.05238994       0.42728332      -1.86924171      -1.00582302
O       16.32464100      24.89038100       2.93426000       0.00000000      15.99900000        0        0        0       0.00000000 0 0       1.10521517       1.41804005     -32.57558205      -0.70884454      -1.26996708       0.53540820
H       17.10554900      24.31688500       3.22517100       0.00000000       1.00800000        0        0        0       0.00000000 0 0      -0.02157779       0.07239409      -2.05238994      -1.77191889       0.74308622      -1.03719723
H       15.70173600      24.41680900       2.29311900       0.00000000       1.00800000        0        0        0       0.00000000 0 0      -0.17459878      -0.04435021      -2.05238994       1.63716984       0.37075469       1.16856027
O       25.46936900      17.50258200      -0.73857900       0.00000000      15.99900000        0        0        0       0.00000000 0 0      -0.15659064      -0.96087349     -32.57558205       0.33119792      -1.22356319      -0.85119224
H       25.97390000      17.74986000      -1.57979500       0.00000000       1.00800000        0        0        0       0.00000000 0 0      -0.12286333      -0.16198815      -2.05238994      -1.77415919       0.24779317       1.53901362
H       24.58262400      17.98175800      -0.65244800       0.00000000       1.00800000        0        0        0       0.00000000 0 0      -0.08523110      -0.12399267      -2.05238994       1.78384376      -0.34244445      -0.97430164
O       19.37474500      16.15464900      -6.78394900       0.00000000      15.99900000        0        0        0       0.00000000 0 0      -0.18438593       0.48591905     -32.57558205       1.96754146      -1.82206523       0.47482622
H       20.28016900      15.72631700      -6.92566200       0.00000000       1.00800000        0        0        0       0.00000000 0 0      -0.12902433      -0.18908275      -2.05238994      -1.72251141       0.10645708       0.42271891
H       18.69511100      15.52213400      -6.38224700       0.00000000       1.00800000        0        0        0       0.00000000 0 0      -0.19459713       0.08650957      -2.05238994       1.33922911       0.84417152      -1.03458786
O       17.42135500      24.11131800      -2.35004400       0.00000000      15.99900000        0        0        0       0.00000000 0 0      -0.15617133      -0.32472581     -32.57558205       1.45546174      -0.72824460      -1.21730900
H       18.42766800      24.16460900      -2.43856900       0.00000000       1.00800000        0        0        0       0.00000000 0 0      -0.10773060       0.08904847      -2.05238994      -1.50063574      -0.51705247       0.34574097
H       17.07666900      23.16124900      -2.30639900       0.00000000       1.00800000        0        0        0       0.00000000 0 0       0.16982410       0.23359043      -2.05238994       0.93034363       1.73768532       0.28142291
O       23.02905300      23.08348100      -1.14793000       0.00000000      15.99900000        0        0        0       0.00000000 0 0      -0.32001677      -0.23173158     -32.57558205      -0.74852252      -1.69565284      -0.57524735
H       22.58656300      22.32714300      -0.64246000       0.00000000       1.00800000        0        0        0       0.00000000 0 0      -0.12936585      -0.12505483      -2.05238994       0.70568860       0.96720862      -1.79745841
H       22.83759500      23.06244900      -2.14102800       0.00000000       1.00800000        0        0        0       0.00000000 0 0       0.07582956       0.14978405      -2.05238994       0.13823545      -0.53020638       1.79527402
O       18.98682800      16.34490500      -1.69677800       0.00000000      15.99900000        0        0        0       0.00000000 0 0       0.63264525       0.30455296     -32.57558205      -0.29638410      -1.37778771      -0.67116654
H       19.07532900      15.36739000      -1.45188000       0.00000000       1.00800000        0        0        0       0.00000000 0 0       0.00271251       0.20603361      -2.05238994      -0.57888556       1.88221765      -0.78978354
H       18.04310800      16.60652900      -1.95032800       0.00000000       1.00800000        0        0        0       0.00000000 0 0      -0.13179020      -0.03569340      -2.05238994       1.78125358      -1.39711726       0.63084173
O       16.47066800      19.26816300      -4.63774900       0.00000000      15.99900000        0        0        0       0.00000000 0 0       0.51987781       1.09340846     -32.57558205      -1.75775456      -1.04349685      -0.47131175
H       15.89655300      18.68832000      -4.03982200       0.00000000       1.00800000        0        0        0       0.00000000 0 0       0.08676671       0.00413217      -2.05238994       0.94507515       0.99073094      -1.66367424
H       16.82862300      18.77394200      -5.44456800       0.00000000       1.00800000        0        0        0       0.00000000 0 0      -0.04769040       0.07908768      -2.05238994      -1.27343452       0.65939468       1.64713287
O       25.98568600      26.18450100      -1.00802700       0.00000000      15.99900000        0        0        0       0.00000000 0 0       0.83722085      -0.10826452     -32.57558205       0.29476190       1.33279788       0.57085931
H       25.12206800      26.71112100      -1.02137700       0.00000000       1.00800000        0        0        0       0.00000000 0 0      -0.15881964       0.16009573      -2.05238994       1.62681985      -0.81184405       0.45741767
H       26.38607100      26.10242500      -0.08266300       0.00000000       1.00800000        0        0        0       0.00000000 0 0       0.07013989      -0.26660113      -2.05238994      -1.14817512       0.68619245      -1.51772881
O       17.40193800      17.05275100      -7.19309800       0.00000000      15.99900000        0        0        0       0.00000000 0 0       0.64761614       0.03459409     -32.57558205      -2.20278287       1.70134139       0.08077510
H       16.42280900      17.22012200      -7.38450400       0.00000000       1.00800000        0        0        0       0.00000000 0 0      -0.05159391      -0.08174114      -2.05238994       1.66583061       0.31816259       0.10482694
H       17.96842300      17.88788000      -7.26378900       0.00000000       1.00800000        0        0        0       0.00000000 0 0      -0.13340904       0.04678373      -2.05238994      -1.22908974      -1.28490591      -0.29725114
O       20.06514600      19.67682800       5.63091600       0.00000000      15.99900000        0        0        0       0.00000000 0 0      -0.71141664      -0.40477069     -32.57558205      -0.99357831       0.71878940      -0.43553436
H       19.53082400      20.52676500       5.50661300       0.00000000       1.00800000        0        0        0       0.00000000 0 0       0.19603758      -0.08300110      -2.05238994       0.68583232      -1.95075464      -0.38247865
H       19.98785000      19.04144900       4.84755000       0.00000000       1.00800000        0        0        0       0.00000000 0 0      -0.12160492      -0.06010466      -2.05238994      -0.07668439       1.98018050       1.06664860
O       20.27802600      16.25782500      -3.65507400       0.00000000      15.99900000        0        0        0       0.00000000 0 0      -0.31360634      -0.59671574     -32.57558205       0.95705986       0.17410624      -1.42447209
H       20.06816200      17.18896000      -3.31998200       0.00000000       1.00800000        0        0        0       0.00000000 0 0       0.24632325       0.17871362      -2.05238994      -0.07883626      -1.90106452      -1.38957620
H       20.53679700      16.23696700      -4.63279900       0.00000000       1.00800000        0        0        0       0.00000000 0 0       0.05547191      -0.02346263      -2.05238994      -0.57713270       1.28888094       1.64513814
O       13.35801500      16.27534800      -2.84523800       0.00000000      15.99900000        0        0        0       0.00000000 0 0      -0.36626436      -0.60469623     -32.57558205      -2.93348241      -0.92437899      -1.27145362
H       12.94573900      15.80435200      -2.05054700       0.00000000       1.00800000        0        0        0       0.00000000 0 0      -0.12772038       0.25755574      -2.05238994       0.34065229       0.92393494      -1.26043725
H       12.75246800      16.97878500      -3.24752300       0.00000000       1.00800000        0        0        0       0.00000000 0 0      -0.06463416       0.04034422      -2.05238994       0.39397201      -1.52556777       1.02764750
O       13.61586100      14.50872700      -0.13842800       0.00000000      15.99900000        0        0        0       0.00000000 0 0      -0.55191230       0.68014048     -32.57558205       0.64343429       0.64460486       0.17197344
H       13.52388100      15.50816200      -0.01189000       0.00000000       1.00800000        0        0        0       0.00000000 0 0      -0.10969828      -0.15216525      -2.05238994       0.69296193      -1.46185577      -0.20871110
H       14.57855600      14.20221800      -0.18957200       0.00000000       1.00800000        0        0        0       0.00000000 0 0      -0.12041242      -0.25636687      -2.05238994      -1.49065948       1.15611243      -0.01357109
O       27.03422900      21.33927500       4.32024100       0.00000000      15.99900000        0        0        0       0.00000000 0 0      -0.71233109      -0.48225211     -32.57558205      -0.64509952       0.52927041       0.27726564
H       27.49897400      21.92040400       5.00554700       0.00000000       1.00800000        0        0        0       0.00000000 0 0       0.11120886      -0.20911824      -2.05238994      -1.14377964      -0.61562341      -1.44722772
H       26.34469300      21.84139500       3.77640500       0.00000000       1.00800000        0        0        0       0.00000000 0 0       0.10891814      -0.07078728      -2.05238994       1.68312836      -0.24340564       1.39758134
O       20.32013300      17.56155500       6.95494800       0.00000000      15.99900000        0        0        0       0.00000000 0 0      -0.01241446       1.06888892     -32.57558205       0.71473444       0.29811746      -0.37694031
H       19.67863400      17.33002700       6.20780900       0.00000000       1.00800000        0        0        0       0.00000000 0 0      -0.28999283      -0.03109482      -2.05238994       1.64378834       0.46606040       1.14432871
H       21.21185900      17.90283300       6.62073900       0.00000000       1.00800000        0        0        0       0.00000000 0 0       0.06115215       0.09449364      -2.05238994      -2.00485945      -0.49780843       0.25113863
O       19.93633600      23.47988400       4.16248400       0.00000000      15.99900000        0        0        0       0.00000000 0 0       0.47766585       0.24198205     -32.57558205       0.33066779      -0.25787416      -0.09172581
H       19.87103300      24.47003500       4.35915400       0.00000000       1.00800000        0        0        0       0.00000000 0 0      -0.00748906       0.15207942      -2.05238994       0.97661829      -1.24951458      -0.24820000
H       20.88971200      23.14266100       4.13606400       0.00000000       1.00800000        0        0        0       0.00000000 0 0      -0.14169633       0.12083515      -2.05238994      -1.30768907       1.42245603       0.36552358
O       17.80494200      22.13501000       7.66462800       0.00000000      15.99900000        0        0        0       0.00000000 0 0       0.08705354       0.78336700     -32.57558205       1.17729616      -0.37545007      -0.03314488
H       18.54358500      21.84358800       8.29138400       0.00000000       1.00800000        0        0        0       0.00000000 0 0      -0.08200280      -0.15322235      -2.05238994      -0.92550313       0.70286328      -1.47679210
H       18.15049600      22.49997100       6.78671100       0.00000000       1.00800000        0        0        0       0.00000000 0 0       0.22858323       0.07097565      -2.05238994      -0.35481146      -0.57811415       1.74600112
O       18.17221800      17.29192000       0.09814100       0.00000000      15.99900000        0        0        0       0.00000000 0 0      -0.14569481      -0.13556867     -32.57558205      -1.29982615       0.77945054       2.09637570
H       17.18394900      17.38657000      -0.09604800       0.00000000       1.00800000        0        0        0       0.00000000 0 0       0.03712007      -0.14774290      -2.05238994       1.43292129       0.41751233       1.20662618
H       18.49989100      17.93222500       0.80946700       0.00000000       1.00800000        0        0        0       0.00000000 0 0      -0.04417033      -0.01103243      -2.05238994      -1.89461339      -0.66430116      -1.17426348
O       19.55143800      19.11059100      -0.90393300       0.00000000      15.99900000        0        0        0       0.00000000 0 0      -0.03983532      -0.29969805     -32.57558205       0.96036333      -0.63876629      -1.49081469
H       19.92293600      18.17758000      -0.78218000       0.00000000       1.00800000        0        0        0       0.00000000 0 0      -0.20416823       0.00787584      -2.05238994      -1.71313119       1.41240728      -0.43801451
H       18.54643900      19.12567100      -1.01835400       0.00000000       1.00800000        0        0        0       0.00000000 0 0       0.25845397      -0.17808148      -2.05238994       2.34133816      -0.75930244       0.45445919
O       17.93701700      25.88951500       1.42939000       0.00000000      15.99900000        0        0        0       0.00000000 0 0       0.39210697      -0.19338300     -32.57558205       1.78647709       0.64542711      -1.06074023
H       18.48843900      25.28729800       0.83222000       0.00000000       1.00800000        0        0        0       0.00000000 0 0       0.04295711      -0.19108739      -2.05238994      -0.93836284       1.79948878       0.51033276
H       17.86515000      26.83627600       1.08036100       0.00000000       1.00800000        0        0        0       0.00000000 0 0      -0.18601829      -0.32224320      -2.05238994       0.44300917      -1.82877612       0.04036307
O       25.75708400      19.82792600      -0.41966300       0.00000000      15.99900000        0        0        0       0.00000000 0 0       0.24461861      -0.82214195     -32.57558205       1.62031543       0.19730666      -3.26177549
H       26.72285700      19.53169400      -0.36606600       0.00000000       1.00800000        0        0        0       0.00000000 0 0      -0.04963894       0.01768526      -2.05238994      -1.71478593       0.41259813      -0.84482551
H       25.40628300      19.86759500      -1.36766600       0.00000000       1.00800000        0        0        0       0.00000000 0 0      -0.14022455      -0.12329918      -2.05238994       1.25810790      -0.34866527       1.38803935
O       19.39472300      15.18484400       2.24833100       0.00000000      15.99900000        0        0        0       0.00000000 0 0      -0.62893759      -0.32357262     -32.57558205      -0.08191505       0.74592316       1.26135564
H       20.24576700      14.94641000       2.74048600       0.00000000       1.00800000        0        0        0       0.00000000 0 0       0.13390928       0.12817236      -2.05238994      -1.13019526      -0.06979258      -1.62580299
H       19.21699700      14.58810300       1.45105000       0.00000000       1.00800000        0        0        0       0.00000000 0 0      -0.05693484      -0.06392247      -2.05238994       0.54146481       0.70197529       1.93175888
O       21.02170800      15.51943400       0.64088400       0.00000000      15.99900000        0        0        0       0.00000000 0 0      -0.47176544      -0.06398855     -32.57558205       0.44999579       1.68909144      -0.98090053
H       20.29117500      16.21716300       0.58759700       0.00000000       1.00800000        0        0        0       0.00000000 0 0      -0.15147956      -0.02109793      -2.05238994       1.70465827      -0.95631093      -0.06215310
H       21.91911600      15.85935700       0.32079800       0.00000000       1.00800000        0        0        0       0.00000000 0 0       0.18473442       0.05241279      -2.05238994      -2.06288671      -0.42932448       0.24942288
O       15.01748500      17.33056500      -1.88361500       0.00000000      15.99900000        0        0        0       0.00000000 0 0       0.19300442       0.18321491     -32.57558205       3.18405628       1.18463123      -0.91089243
H       14.56233300      18.08630800      -2.37862200       0.00000000       1.00800000        0        0        0       0.00000000 0 0      -0.23145081      -0.12434603      -2.05238994       1.22293568      -1.41161597       0.70603478
H       15.60842100      16.76532500      -2.47913300       0.00000000       1.00800000        0        0        0       0.00000000 0 0      -0.11077448       0.20773125      -2.05238994      -1.28307152       1.25041258       0.66387719
O       16.91377200      21.41394600      -5.28986000       0.00000000      15.99900000        0        0        0       0.00000000 0 0       0.61063348       0.04006769     -32.57558205       3.11693358      -0.74790400       0.17728579
H       17.02835200      21.28895400      -4.29256800       0.00000000       1.00800000        0        0        0       0.00000000 0 0       0.04126051      -0.03080434      -2.05238994       0.01753184       0.06393190      -2.17304277
H       17.74502800      21.77013100      -5.74316900       0.00000000       1.00800000        0        0        0       0.00000000 0 0       0.37701629       0.04941223      -2.05238994      -1.27848971      -0.41117766       1.50242388
O       24.14245900      17.82107100      -2.79840400       0.00000000      15.99900000        0        0        0       0.00000000 0 0      -0.78994508      -0.67865459     -32.57558205      -1.27793670      -0.14830530      -0.99943268
H       23.13622200      17.75532400      -2.71773100       0.00000000       1.00800000        0        0        0       0.00000000 0 0       0.36311289       0.13869093      -2.05238994       1.94704127      -0.58918726      -0.46909758
H       24.57766000      16.94572500      -3.05862000       0.00000000       1.00800000        0        0        0       0.00000000 0 0      -0.04596031       0.07971694      -2.05238994      -1.40779912       0.79955351       0.24201038
O       19.82581800      22.61788400       1.17474200       0.00000000      15.99900000        0        0        0       0.00000000 0 0       0.37965383       0.07960825     -32.57558205       0.79446685       0.71832550       1.85571325
H       20.78511900      22.29688300       1.16822100       0.00000000       1.00800000        0        0        0       0.00000000 0 0       0.07584359      -0.08119881      -2.05238994      -1.51214278       0.57843071       0.86137068
H       19.48109000      22.81911800       2.10426300       0.00000000       1.00800000        0        0        0       0.00000000 0 0       0.20092373       0.02083160      -2.05238994       1.41763377      -0.13296171      -0.75694627
O       21.75218600      19.77946000      -3.82703600       0.00000000      15.99900000        0        0        0       0.00000000 0 0      -0.39847525      -0.59013820     -32.57558205       1.31187892      -0.73349118      -1.53124833
H       22.75143500      19.62454100      -3.79799800       0.00000000       1.00800000        0        0        0       0.00000000 0 0      -0.10744210      -0.30566075      -2.05238994      -1.75416541      -0.31058168       0.24188425
H       21.21741100      18.97919700      -3.51568700       0.00000000       1.00800000        0        0        0       0.00000000 0 0       0.00691315       0.02345987      -2.05238994       1.47414684       1.37705600      -0.95863032
O       22.71621200      13.60452800      -0.91663800       0.00000000      15.99900000        0        0        0       0.00000000 0 0       0.21177366       1.29052958     -32.57558205       1.09721446      -2.37160587       0.75366485
H       22.33352400      13.11166500      -1.71286600       0.00000000       1.00800000        0        0        0       0.00000000 0 0       0.12203410      -0.31161443      -2.05238994       0.85680932       0.43939561       1.59456921
H       23.21902400      13.00010000      -0.28009200       0.00000000       1.00800000        0        0        0       0.00000000 0 0      -0.15358390       0.31122024      -2.05238994      -1.07368898       0.31084126      -1.51546407
O       21.23163900      18.62076100       1.25904200       0.00000000      15.99900000        0        0        0       0.00000000 0 0      -0.36286384       0.80919548     -32.57558205      -0.95379388      -0.57515687      -0.85122657
H       20.39851900      18.42986900       1.80016600       0.00000000       1.00800000        0        0        0       0.00000000 0 0      -0.07704647      -0.02826536      -2.05238994       1.59607172       1.31906509      -1.24824834
H       21.18879000      19.50066200       0.76176800       0.00000000       1.00800000        0        0        0       0.00000000 0 0      -0.00178507      -0.34568187      -2.05238994      -0.55828404      -1.74273515       1.55341566
O       17.10979200      15.14210600       1.63291800       0.00000000      15.99900000        0        0        0       0.00000000 0 0       1.00916871       0.62964316     -32.57558205      -1.15449357      -0.23489627      -1.27370894
H       16.21271100      14.71024700       1.45378800       0.00000000       1.00800000        0        0        0       0.00000000 0 0      -0.21407550      -0.03242878      -2.05238994       1.20928335       1.57260609       0.85732222
H       17.05518600      16.14839300       1.72094000       0.00000000       1.00800000        0        0        0       0.00000000 0 0       0.11189343      -0.28212787      -2.05238994      -0.25734949      -1.69056499      -0.17262493
O       18.29099800      12.34876500      -0.40835600       0.00000000      15.99900000        0        0        0       0.00000000 0 0      -0.88512184      -0.21839865     -32.57558205      -0.64103758       0.17154218       1.79820848
H       18.94143600      12.81486300       0.21053400       0.00000000       1.00800000        0        0        0       0.00000000 0 0       0.01726973       0.04350266      -2.05238994      -1.39512062      -1.23303509      -0.42583480
H       17.51040900      11.92920800       0.07949100       0.00000000       1.00800000        0        0        0       0.00000000 0 0       0.06667732      -0.17724044      -2.05238994       1.70416725       0.89036226      -0.17148852
O       25.99291500      14.90796700       2.18883800       0.00000000      15.99900000        0        0        0       0.00000000 0 0      -0.32839912       1.28842633     -32.57558205       1.03209150      -3.18392038       2.16867685
H       25.86469300      14.63430100       3.15424400       0.00000000       1.00800000        0        0        0       0.00000000 0 0      -0.09253377       0.04095976      -2.05238994       0.64203018       0.13976756      -1.56080902
H       26.61941500      14.29580200       1.68277800       0.00000000       1.00800000        0        0        0       0.00000000 0 0       0.06000196       0.15664865      -2.05238994      -0.95139134       0.76794803       1.47353745
O       18.92487800      21.48672100      -0.65064100       0.00000000      15.99900000        0        0        0       0.00000000 0 0      -1.09005186      -0.96366612     -32.57558205       0.29140419       1.31664026      -3.54719830
H       19.89423200      21.23392800      -0.50996000       0.00000000       1.00800000        0        0        0       0.00000000 0 0      -0.12814686       0.09512476      -2.05238994      -2.05890131       0.44719279      -0.62894583
H       18.80574900      22.26228000      -1.28912300       0.00000000       1.00800000        0        0        0       0.00000000 0 0      -0.17711085       0.08440139      -2.05238994       0.90374857      -1.11235523       1.07843375
O       21.89914900      17.16541600       3.57668100       0.00000000      15.99900000        0        0        0       0.00000000 0 0      -0.50167380      -0.39987083     -32.57558205      -0.99395233       0.02585573       0.49123493
H       21.42489000      16.78220100       2.76948400       0.00000000       1.00800000        0        0        0       0.00000000 0 0      -0.26014319      -0.04376346      -2.05238994       0.48936570       0.40170163       1.66025901
H       21.30695200      17.22225200       4.39485800       0.00000000       1.00800000        0        0        0       0.00000000 0 0      -0.01288164      -0.17384287      -2.05238994       0.63062811      -0.52297473      -1.82893538
O       22.28617200      13.63052800      -4.20242800       0.00000000      15.99900000        0        0        0       0.00000000 0 0      -0.06991748       0.23287881     -32.57558205      -1.05268347       0.39491299      -0.61506039
H       21.87983500      14.25186500      -3.51527900       0.00000000       1.00800000        0        0        0       0.00000000 0 0       0.06097591      -0.02680352      -2.05238994       0.19896851      -0.42670193      -1.27654505
H       22.05837600      13.88782400      -5.15387500       0.00000000       1.00800000        0        0        0       0.00000000 0 0      -0.04784847      -0.03552828      -2.05238994       0.09205212      -0.23012345       1.91172707
O       18.89898200      27.19990700      -1.35501200       0.00000000      15.99900000        0        0        0       0.00000000 0 0       0.43341625       0.47585110     -32.57558205      -0.57121396      -0.02518067      -0.78712773
H       17.93629200      26.90053700      -1.27164400       0.00000000       1.00800000        0        0        0       0.00000000 0 0       0.14420028      -0.21018328      -2.05238994       1.52617121       0.60979569      -0.74656582
H       19.16518700      27.41973700      -2.30588100       0.00000000       1.00800000        0        0        0       0.00000000 0 0       0.11030086      -0.13794360      -2.05238994      -0.97794867      -0.55205250       1.52747643
O       27.77452600      23.31382800       2.54571600       0.00000000      15.99900000        0        0        0       0.00000000 0 0       0.21021789      -0.89920413     -32.57558205      -0.34650874       0.39358157      -0.91978389
H       28.31616300      22.86177200       1.82072200       0.00000000       1.00800000        0        0        0       0.00000000 0 0      -0.26056867      -0.07653387      -2.05238994      -1.40106368       0.82780886       0.92806268
H       26.82678500      23.52328700       2.26066000       0.00000000       1.00800000        0        0        0       0.00000000 0 0      -0.11771434       0.10681794      -2.05238994       1.89891124      -0.65155816      -0.25398931
O       19.08728400      13.43193300      -4.85361200       0.00000000      15.99900000        0        0        0       0.00000000 0 0      -0.50735497      -0.11005120     -32.57558205      -0.27258325       1.14255691      -2.65615082
H       19.67173000      14.25700700      -4.88555300       0.00000000       1.00800000        0        0        0       0.00000000 0 0       0.06931565      -0.07477886      -2.05238994      -1.49203444      -1.12662840       0.46651709
H       18.10193100      13.64655300      -4.77386600       0.00000000       1.00800000        0        0        0       0.00000000 0 0       0.10380988      -0.18820953      -2.05238994       2.04576087       0.21014097      -0.01416294
O       15.84013500      20.40040100      -2.31842500       0.00000000      15.99900000        0        0        0       0.00000000 0 0       1.82323340      -1.22426100     -32.57558205       0.64169145       0.79551494       0.11668372
H       16.85123400      20.36969400      -2.32730000       0.00000000       1.00800000        0        0        0       0.00000000 0 0      -0.06347351       0.01351780      -2.05238994      -1.82275701       0.59129041      -0.20747420
H       15.46492400      21.23871900      -2.74243400       0.00000000       1.00800000        0        0        0       0.00000000 0 0      -0.03373684      -0.12244285      -2.05238994       1.05676961      -1.22701013       0.56389087
O       26.33470900      14.86322400      -2.46487600       0.00000000      15.99900000        0        0        0       0.00000000 0 0      -0.46058917       0.13010882     -32.57558205       2.39985704       0.68147570       1.38492739
H       25.94783000      15.58333400      -1.86896600       0.00000000       1.00800000        0        0        0       0.00000000 0 0       0.31900962      -0.16489077      -2.05238994       0.84951121      -0.71182060      -1.20975113
H       27.04527000      15.20986700      -3.09597200       0.00000000       1.00800000        0        0        0       0.00000000 0 0      -0.09504921       0.12389033      -2.05238994      -1.31790006      -0.12564027       1.27923107
O       19.42304700      20.17453600      -3.87057300       0.00000000      15.99900000        0        0        0       0.00000000 0 0      -0.04661572       0.28942935     -32.57558205      -1.59768879       1.06457496       0.51022112
H       19.15300000      21.05691100      -4.28510000       0.00000000       1.00800000        0        0        0       0.00000000 0 0      -0.38646985       0.02148916      -2.05238994       0.24332440      -1.49712491       1.17347097
H       18.84533800      19.91316300      -3.08236000       0.00000000       1.00800000        0        0        0       0.00000000 0 0      -0.07065222       0.14108499      -2.05238994       0.71107191       0.93158638      -1.50299954
O       20.74458000      18.25341500      -5.50754800       0.00000000      15.99900000        0        0        0       0.00000000 0 0       1.47541515       0.17029892     -32.57558205       0.19340074       0.24876279      -0.91267931
H       20.41326800      19.20835600      -5.54833300       0.00000000       1.00800000        0        0        0       0.00000000 0 0      -0.12970222      -0.03706433      -2.05238994       1.61972296      -1.34600627      -0.03091614
H       21.66107600      18.13353700      -5.91865300       0.00000000       1.00800000        0        0        0       0.00000000 0 0      -0.08886087       0.08426426      -2.05238994      -1.67246079       1.03444409       0.66055506
O       24.48416800      15.91500900       1.00219700       0.00000000      15.99900000        0        0        0       0.00000000 0 0      -0.79482253       0.00960745     -32.57558205      -3.01331329       0.92628533      -0.97093618
H       23.90852900      16.74124800       1.09870000       0.00000000       1.00800000        0        0        0       0.00000000 0 0       0.00022599       0.16751077      -2.05238994       0.29551473      -1.78492367      -0.62052870
H       24.06222800      15.20325800       0.42020000       0.00000000       1.00800000        0        0        0       0.00000000 0 0       0.06880284       0.03605202      -2.05238994       0.08271113       1.45481122       1.07638931
O       23.96561300      23.74272700       7.35265500       0.00000000      15.99900000        0        0        0       0.00000000 0 0       0.41615626      -0.36851147     -32.57558205      -0.04003751      -0.70485359       1.13963485
H       24.79184200      23.15907200       7.34664000       0.00000000       1.00800000        0        0        0       0.00000000 0 0       0.00477642      -0.05970880      -2.05238994      -1.68906605       0.65193146      -0.21186303
H       23.10467400      23.21158700       7.35692000       0.00000000       1.00800000        0        0        0       0.00000000 0 0       0.04696633      -0.12767329      -2.05238994       1.62199259       0.12300493      -0.29232720
O       13.87648700      19.03160900      -4.85756800       0.00000000      15.99900000        0        0        0       0.00000000 0 0      -0.49288802      -0.86630797     -32.57558205      -1.76034892      -1.26957202       0.76105839
H       13.81871900      18.02217900      -4.82504400       0.00000000       1.00800000        0        0        0       0.00000000 0 0      -0.03960797       0.05520076      -2.05238994      -0.77575719       1.75535417      -0.33553025
H       12.97352600      19.47785600      -4.95174000       0.00000000       1.00800000        0        0        0       0.00000000 0 0       0.03997906      -0.15331601      -2.05238994       1.19456661      -1.44202733       0.30441937