700
Lattice="39.52 0.0 0.0 0.0 42.78 0.0 0.0 0.0 100.0" Properties=species:S:1:pos:R:3:initial_charges:R:1:masses:R:1:momenta:R:3:forces:R:3 comment="LAMMPS Description" energy=-6433.27294921875 stress="-0.00013799004955217242 -5.859290581611276e-07 -2.752564967067883e-07 -5.859290581611276e-07 -0.0001414809376001358 -6.926416062924545e-07 -2.752564967067883e-07 -6.926416062924545e-07 -1.3054299415671267e-05" free_energy=-6433.27294921875 pbc="T T T"
C       20.37768750      21.74620000       0.00000000       0.00000000      12.01100000      -0.12758225       0.02998615       0.88300191      -0.00029640       0.01543614       0.00000000
C       21.61268750      25.31220000       0.00000000       0.00000000      12.01100000      -0.07909859       1.07457748      -0.26000086      -0.00383382      -0.04827545       0.00000000
C       21.61268750      23.88520000       0.00000000       0.00000000      12.01100000       0.32763843      -1.03909618       0.41051162      -0.00382211       0.01825938       0.00000000
C       20.37768750      23.17220000       0.00000000       0.00000000      12.01100000      -0.37870666       0.59741946       0.43104709      -0.00029848       0.01456637       0.00000000
C       20.37768750      26.02420000       0.00000000       0.00000000      12.01100000       0.21644422       0.76374448      -0.25162935      -0.00029660       0.02188851       0.00000000
C       21.61268750      29.59020000       0.00000000       0.00000000      12.01100000      -0.48046310      -0.61071490      -0.34037883      -0.00383171      -0.03109737       0.00000000
C       21.61268750      28.16420000       0.00000000       0.00000000      12.01100000       0.24847025       0.11155152      -0.19547928      -0.00380851      -0.02984180       0.00000000
C       20.37768750      27.45020000       0.00000000       0.00000000      12.01100000      -0.27329796      -0.07552683      -0.25528005      -0.00029974       0.03297221       0.00000000
C       20.37768750      30.30220000       0.00000000       0.00000000      12.01100000       0.64256059       0.79593946      -0.14525880      -0.00029589       0.02530842       0.00000000
C       21.61268750      33.86720000       0.00000000       0.00000000      12.01100000      -0.84247298      -0.54158343      -0.11467985      -0.00380913       0.01657422       0.00000000
C       21.61268750      32.44120000       0.00000000       0.00000000      12.01100000      -0.10223301       1.15915808       0.09663478      -0.00382026       0.00908726       0.00000000
C       20.37768750      31.72820000       0.00000000       0.00000000      12.01100000       0.81146027      -0.47833729       0.10114472      -0.00029715       0.00425397       0.00000000
C       20.37768750      34.58120000       0.00000000       0.00000000      12.01100000      -0.05859818      -0.42527959      -1.06114685      -0.00029899      -0.04154895       0.00000000
C       21.61268750      38.14520000       0.00000000       0.00000000      12.01100000       0.24877065      -0.45608448      -1.16151994      -0.00381963       0.01430443       0.00000000
C       21.61268750      36.72020000       0.00000000       0.00000000      12.01100000       0.58375775       0.48169076      -0.00123028      -0.00380540      -0.03949143       0.00000000
C       20.37768750      36.00620000       0.00000000       0.00000000      12.01100000       0.53742828       0.61368454       0.02126119      -0.00030075       0.03659005       0.00000000
C       20.37768750      38.85820000       0.00000000       0.00000000      12.01100000      -0.33597646       0.78412981       1.25569525      -0.00029533       0.00456151       0.00000000
C       21.61268750      42.42420000       0.00000000       0.00000000      12.01100000       0.34226150       0.44403526       1.01163244      -0.00383461      -0.04818024       0.00000000
C       21.61268750      40.99720000       0.00000000       0.00000000      12.01100000       0.08176036      -0.04867600       0.26655490      -0.00382303       0.01939497       0.00000000
C       20.37768750      40.28420000       0.00000000       0.00000000      12.01100000       1.00462455       0.03175955      -0.76525947      -0.00029833       0.00527352       0.00000000
C       22.84768750      21.74620000       0.00000000       0.00000000      12.01100000      -0.04618595      -0.21898923       0.37990893      -0.01303354       0.01649047       0.00000000
C       24.08168750      25.31220000       0.00000000       0.00000000      12.01100000      -0.09905190       0.09455527       0.07602434       0.03367453      -0.04606595       0.00000000
C       24.08168750      23.88520000       0.00000000       0.00000000      12.01100000      -0.27435040      -1.17441142       0.17713370       0.03359179       0.01605323       0.00000000
C       22.84768750      23.17220000       0.00000000       0.00000000      12.01100000      -0.64569750       0.33878224      -0.05494343      -0.01300183       0.01353882       0.00000000
C       22.84768750      26.02420000       0.00000000       0.00000000      12.01100000      -0.34683118       0.24507324       0.12639032      -0.01303167       0.02294910       0.00000000
C       24.08168750      29.59020000       0.00000000       0.00000000      12.01100000      -0.33549298      -0.18910830      -0.89582107       0.03369579      -0.02889270       0.00000000
C       24.08168750      28.16420000       0.00000000       0.00000000      12.01100000      -0.11498146      -0.00410218      -0.16928074       0.03353742      -0.03204140       0.00000000
C       22.84768750      27.45020000       0.00000000       0.00000000      12.01100000       0.09630298      -1.29195263      -0.51635668      -0.01298656       0.03196019       0.00000000
C       22.84768750      30.30220000       0.00000000       0.00000000      12.01100000      -0.20474010      -0.25271368       0.22220551      -0.01304621       0.02636985       0.00000000
C       24.08168750      33.86720000       0.00000000       0.00000000      12.01100000       0.12248079      -0.45205692       1.22514154       0.03356826       0.01877031       0.00000000
C       24.08168750      32.44120000       0.00000000       0.00000000      12.01100000      -0.69567736      -0.72370131       0.01573803       0.03361458       0.00688862       0.00000000
C       22.84768750      31.72820000       0.00000000       0.00000000      12.01100000      -0.85079430       0.10468707       0.57429358      -0.01301964       0.00322157       0.00000000
C       22.84768750      34.58120000       0.00000000       0.00000000      12.01100000       0.62935833      -0.52999076      -0.15055358      -0.01299817      -0.04055100       0.00000000
C       24.08168750      38.14520000       0.00000000       0.00000000      12.01100000       1.22933393      -0.11362134      -0.09415756       0.03363420       0.01650240       0.00000000
C       24.08168750      36.72020000       0.00000000       0.00000000      12.01100000       0.65210378       0.09852408      -1.08002516       0.03358472      -0.04168538       0.00000000
C       22.84768750      36.00620000       0.00000000       0.00000000      12.01100000       0.05933050       0.66171563      -0.39104450      -0.01301172       0.03558756       0.00000000
C       22.84768750      38.85820000       0.00000000       0.00000000      12.01100000       0.22669989       0.18284755      -0.28068826      -0.01303078       0.00560348       0.00000000
C       24.08168750      42.42420000       0.00000000       0.00000000      12.01100000      -0.08375073       0.10719146      -0.12066177       0.03366968      -0.04597067       0.00000000
C       24.08168750      40.99720000       0.00000000       0.00000000      12.01100000       0.60817656       0.37002405       0.55580295       0.03359953       0.01718737       0.00000000
C       22.84768750      40.28420000       0.00000000       0.00000000      12.01100000      -0.04131365      -0.49085817      -0.00754886      -0.01300009       0.00424060       0.00000000
C       25.31768750      21.74620000       0.00000000       0.00000000      12.01100000      -0.07950730       0.29035311       0.20448712      -0.01683319       0.01675687       0.00000000
C       26.55268750      25.31220000       0.00000000       0.00000000      12.01100000      -1.10055321       0.02004280       0.16869758      -0.02025740      -0.04701560       0.00000000
C       26.55268750      23.88520000       0.00000000       0.00000000      12.01100000       0.58080539       0.39501638       0.48727175      -0.02019686       0.01697782       0.00000000
C       25.31768750      23.17220000       0.00000000       0.00000000      12.01100000       0.12985757      -0.42354382      -0.17171460      -0.01679795       0.01322272       0.00000000
C       25.31768750      26.02420000       0.00000000       0.00000000      12.01100000       0.81633116      -0.17626914       0.04261121      -0.01683098       0.02319984       0.00000000
C       26.55268750      29.59020000       0.00000000       0.00000000      12.01100000       0.47796369       0.01176967      -1.09090144      -0.02026313      -0.02982554       0.00000000
C       26.55268750      28.16420000       0.00000000       0.00000000      12.01100000       1.06318741      -0.48673520       0.43385743      -0.02015441      -0.03115954       0.00000000
C       25.31768750      27.45020000       0.00000000       0.00000000      12.01100000      -0.75603191       0.16632258      -0.41966590      -0.01677301       0.03162277       0.00000000
C       25.31768750      30.30220000       0.00000000       0.00000000      12.01100000      -0.11924920      -0.19424723       0.13146054      -0.01684219       0.02661816       0.00000000
C       26.55268750      33.86720000       0.00000000       0.00000000      12.01100000      -1.40178776       0.05609284      -1.23268185      -0.02017097       0.01787669       0.00000000
C       26.55268750      32.44120000       0.00000000       0.00000000      12.01100000      -0.23275284      -0.05797571      -0.25713914      -0.02020827       0.00780146       0.00000000
C       25.31768750      31.72820000       0.00000000       0.00000000      12.01100000      -1.08264227       0.41929771      -0.70723411      -0.01680688       0.00291918       0.00000000
C       25.31768750      34.58120000       0.00000000       0.00000000      12.01100000      -1.00633992      -0.19571416      -0.02953892      -0.01678303      -0.04019967       0.00000000
C       26.55268750      38.14520000       0.00000000       0.00000000      12.01100000      -0.43952329      -0.34758953      -0.11738295      -0.02021373       0.01560834       0.00000000
C       26.55268750      36.72020000       0.00000000       0.00000000      12.01100000       0.54979472       0.15538850      -0.07219565      -0.02017468      -0.04081190       0.00000000
C       25.31768750      36.00620000       0.00000000       0.00000000      12.01100000       0.84737185       0.07348062       0.68689552      -0.01679506       0.03524757       0.00000000
C       25.31768750      38.85820000       0.00000000       0.00000000      12.01100000      -0.14501637      -0.38238933       0.03607244      -0.01682082       0.00587788       0.00000000
C       26.55268750      42.42420000       0.00000000       0.00000000      12.01100000       0.57815781       0.14695542      -0.20612392      -0.02025005      -0.04692172       0.00000000
C       26.55268750      40.99720000       0.00000000       0.00000000      12.01100000      -0.12146153       0.02054465      -0.36408490      -0.02020400       0.01811209       0.00000000
C       25.31768750      40.28420000       0.00000000       0.00000000      12.01100000       0.81374351       1.07600684      -0.10701044      -0.01679571       0.00394514       0.00000000
C       27.78668750      21.74620000       0.00000000       0.00000000      12.01100000      -0.00475415       0.19556201       0.80615768       0.02099090       0.01704449       0.00000000
C       29.02168750      25.31220000       0.00000000       0.00000000      12.01100000       0.03266972       0.54921884       0.11125732       0.02109873      -0.04611548       0.00000000
C       29.02168750      23.88520000       0.00000000       0.00000000      12.01100000      -0.64840115       1.25206630       0.41906810       0.02105223       0.01613319       0.00000000
C       27.78668750      23.17220000       0.00000000       0.00000000      12.01100000       0.37776586      -0.02621513      -0.37584633       0.02093451       0.01298421       0.00000000
C       27.78668750      26.02420000       0.00000000       0.00000000      12.01100000      -0.40560330      -0.70853446       0.83658132       0.02099423       0.02349914       0.00000000
C       29.02168750      29.59020000       0.00000000       0.00000000      12.01100000       0.90523773      -0.50119746      -0.26697715       0.02111145      -0.02895552       0.00000000
C       29.02168750      28.16420000       0.00000000       0.00000000      12.01100000       1.05199625       0.42644139      -0.82268616       0.02101436      -0.03191878       0.00000000
C       27.78668750      27.45020000       0.00000000       0.00000000      12.01100000      -0.19782381      -0.19602109       0.80270023       0.02089298       0.03140914       0.00000000
C       27.78668750      30.30220000       0.00000000       0.00000000      12.01100000      -0.14023068       0.74619537      -0.25688991       0.02099661       0.02692363       0.00000000
C       29.02168750      33.86720000       0.00000000       0.00000000      12.01100000      -0.35728595      -0.07157213       0.35814558       0.02102452       0.01865699       0.00000000
C       29.02168750      32.44120000       0.00000000       0.00000000      12.01100000      -0.53801080      -0.53194154       0.32643283       0.02106332       0.00697667       0.00000000
C       27.78668750      31.72820000       0.00000000       0.00000000      12.01100000      -0.05308526       0.05300584      -0.24760013       0.02094492       0.00266659       0.00000000
C       27.78668750      34.58120000       0.00000000       0.00000000      12.01100000      -0.45558427      -0.27137539      -0.74110631       0.02090529      -0.03999921       0.00000000
C       29.02168750      38.14520000       0.00000000       0.00000000      12.01100000      -0.76550954       0.20195206      -0.02410169       0.02107313       0.01639421       0.00000000
C       29.02168750      36.72020000       0.00000000       0.00000000      12.01100000      -0.19341475       0.72385793      -0.38310491       0.02103563      -0.04155264       0.00000000
C       27.78668750      36.00620000       0.00000000       0.00000000      12.01100000      -0.83553791      -0.22244935       0.47586182       0.02091232       0.03503636       0.00000000
C       27.78668750      38.85820000       0.00000000       0.00000000      12.01100000      -0.58271064       0.43217602       0.45696529       0.02095464       0.00615616       0.00000000
C       29.02168750      42.42420000       0.00000000       0.00000000      12.01100000      -0.42732904      -0.40127389      -1.42899265       0.02110100      -0.04602226       0.00000000
C       29.02168750      40.99720000       0.00000000       0.00000000      12.01100000      -0.42618388       0.37944814       0.19066032       0.02105073       0.01726831       0.00000000
C       27.78668750      40.28420000       0.00000000       0.00000000      12.01100000       0.84758879       0.29612241       0.14783405       0.02093680       0.00368752       0.00000000
C       30.25768750      21.74620000       0.00000000       0.00000000      12.01100000       0.74837186       0.42340222      -0.73795900      -0.01655477       0.01398053       0.00000000
C       31.49268750      25.31220000       0.00000000       0.00000000      12.01100000      -0.39655864       1.35469709       0.59732908      -0.00400199      -0.04549205       0.00000000
C       31.49268750      23.88520000       0.00000000       0.00000000      12.01100000      -0.04736834      -0.42644069      -0.19597877      -0.00399346       0.01548613       0.00000000
C       30.25768750      23.17220000       0.00000000       0.00000000      12.01100000       0.27984397      -0.46545152      -0.53261833      -0.01651784       0.01598847       0.00000000
C       30.25768750      26.02420000       0.00000000       0.00000000      12.01100000       0.68297978      -0.06334392      -0.33251354      -0.01655477       0.02042989       0.00000000
C       31.49268750      29.59020000       0.00000000       0.00000000      12.01100000      -0.20432162       0.65343564       0.45471297      -0.00400311      -0.02831438       0.00000000
C       31.49268750      28.16420000       0.00000000       0.00000000      12.01100000      -0.34264634       0.36880440      -0.44997104      -0.00398219      -0.03260409       0.00000000
C       30.25768750      27.45020000       0.00000000       0.00000000      12.01100000       0.29093742      -0.38551640      -0.20234801      -0.01649145       0.03437266       0.00000000
C       30.25768750      30.30220000       0.00000000       0.00000000      12.01100000      -0.85447904      -0.01117984       0.38095761      -0.01656381       0.02385263       0.00000000
C       31.49268750      33.86720000       0.00000000       0.00000000      12.01100000       0.24151991      -0.57139251       0.27913787      -0.00397847       0.01932829       0.00000000
C       31.49268750      32.44120000       0.00000000       0.00000000      12.01100000       0.33324788       0.77162383       0.53282718      -0.00399296       0.00632389       0.00000000
C       30.25768750      31.72820000       0.00000000       0.00000000      12.01100000       0.27476425      -0.37207243       0.47182096      -0.01653041       0.00567493       0.00000000
C       30.25768750      34.58120000       0.00000000       0.00000000      12.01100000      -0.76859494       0.55948153      -0.03959086      -0.01649983      -0.04293533       0.00000000
C       31.49268750      38.14520000       0.00000000       0.00000000      12.01100000      -0.57536258      -0.08928187      -0.33334387      -0.00399196       0.01707040       0.00000000
C       31.49268750      36.72020000       0.00000000       0.00000000      12.01100000       0.23218722      -0.03565148      -0.09043508      -0.00397688      -0.04224633       0.00000000
C       30.25768750      36.00620000       0.00000000       0.00000000      12.01100000      -0.02666331      -0.41936848      -0.43232583      -0.01651249       0.03798344       0.00000000
C       30.25768750      38.85820000       0.00000000       0.00000000      12.01100000       0.35312849      -0.46743871      -0.79181694      -0.01654137       0.00312421       0.00000000
C       31.49268750      42.42420000       0.00000000       0.00000000      12.01100000      -0.26568502      -0.40982798       0.49030935      -0.00400233      -0.04539704       0.00000000
C       31.49268750      40.99720000       0.00000000       0.00000000      12.01100000       0.46731488      -0.22621054       0.40819054      -0.00399075       0.01662189       0.00000000
C       30.25768750      40.28420000       0.00000000       0.00000000      12.01100000      -0.59119258       0.07245034       0.19961849      -0.01651582       0.00669725       0.00000000
C       32.72768750      21.74620000       0.00000000       0.00000000      12.01100000       0.52592887       0.11213040      -0.48544876      -0.00041587       0.01656183       0.00000000
C       33.96268750      25.31220000       0.00000000       0.00000000      12.01100000       0.35944003      -0.28633303       0.57139584      -0.00020681      -0.04652882       0.00000000
C       33.96268750      23.88520000       0.00000000       0.00000000      12.01100000      -0.60869551       0.03997310       0.10356404      -0.00020705       0.01651883       0.00000000
C       32.72768750      23.17220000       0.00000000       0.00000000      12.01100000      -0.85020512      -0.02596712       0.10560411      -0.00041716       0.01343865       0.00000000
C       32.72768750      26.02420000       0.00000000       0.00000000      12.01100000       0.67317528       1.18619834      -0.19406879      -0.00041773       0.02301307       0.00000000
C       33.96268750      29.59020000       0.00000000       0.00000000      12.01100000      -0.33805683      -0.14534851       0.24843505      -0.00020829      -0.02935179       0.00000000
C       33.96268750      28.16420000       0.00000000       0.00000000      12.01100000       0.60824693      -0.00444802      -0.27306460      -0.00020717      -0.03157467       0.00000000
C       32.72768750      27.45020000       0.00000000       0.00000000      12.01100000      -0.09536646      -0.23018701      -0.01860587      -0.00041857       0.03184498       0.00000000
C       32.72768750      30.30220000       0.00000000       0.00000000      12.01100000       0.50176990      -0.41749557       0.41243693      -0.00041698       0.02643454       0.00000000
C       33.96268750      33.86720000       0.00000000       0.00000000      12.01100000      -1.35675484       0.40945420      -0.29188691      -0.00020539       0.01830311       0.00000000
C       33.96268750      32.44120000       0.00000000       0.00000000      12.01100000       0.34150315      -0.30833967       0.30190154      -0.00020755       0.00735216       0.00000000
C       32.72768750      31.72820000       0.00000000       0.00000000      12.01100000       0.44126919       0.57933883      -0.36648525      -0.00041560       0.00312467       0.00000000
C       32.72768750      34.58120000       0.00000000       0.00000000      12.01100000       0.94241318      -0.56355866      -1.01349980      -0.00041926      -0.04042773       0.00000000
C       33.96268750      38.14520000       0.00000000       0.00000000      12.01100000      -0.88408899       0.78211608      -0.64309768      -0.00020850       0.01603804       0.00000000
C       33.96268750      36.72020000       0.00000000       0.00000000      12.01100000      -0.21989694       0.40587926      -0.84664750      -0.00020675      -0.04121816       0.00000000
C       32.72768750      36.00620000       0.00000000       0.00000000      12.01100000       0.93578108      -0.42037937       0.10459064      -0.00041912       0.03547200       0.00000000
C       32.72768750      38.85820000       0.00000000       0.00000000      12.01100000      -0.99224965      -0.51866558      -0.52306533      -0.00041589       0.00568554       0.00000000
C       33.96268750      42.42420000       0.00000000       0.00000000      12.01100000       0.09985477      -0.20901993       0.18853495      -0.00020725      -0.04643245       0.00000000
C       33.96268750      40.99720000       0.00000000       0.00000000      12.01100000      -0.65173404       0.22433774      -0.25985019      -0.00020749       0.01765073       0.00000000
C       32.72768750      40.28420000       0.00000000       0.00000000      12.01100000      -0.15264427      -0.21169791       0.05518970      -0.00041751       0.00414765       0.00000000
C       35.19768750      21.74620000       0.00000000       0.00000000      12.01100000       1.15999724       0.53944733       0.28002306      -0.00014511       0.01604398       0.00000000
C       36.43268750      25.31220000       0.00000000       0.00000000      12.01100000      -1.31644312       0.17807084      -0.04115587      -0.00002247      -0.04659060       0.00000000
C       36.43268750      23.88520000       0.00000000       0.00000000      12.01100000       0.69820755       0.14788433      -0.25385772      -0.00001929       0.01658020       0.00000000
C       35.19768750      23.17220000       0.00000000       0.00000000      12.01100000       0.18215484      -0.39783151       0.35621346      -0.00014485       0.01395649       0.00000000
C       35.19768750      26.02420000       0.00000000       0.00000000      12.01100000      -0.46047233      -0.03625981       0.17573249      -0.00014389       0.02249544       0.00000000
C       36.43268750      29.59020000       0.00000000       0.00000000      12.01100000      -0.83869245      -0.00878848      -1.05988735      -0.00002127      -0.02941320       0.00000000
C       36.43268750      28.16420000       0.00000000       0.00000000      12.01100000       0.10482898       0.38917459       0.05398984      -0.00002076      -0.03151284       0.00000000
C       35.19768750      27.45020000       0.00000000       0.00000000      12.01100000       0.30050661      -0.14904566       0.06572222      -0.00014382       0.03236108       0.00000000
C       35.19768750      30.30220000       0.00000000       0.00000000      12.01100000      -0.47696869       0.75859176      -0.31539517      -0.00014435       0.02591763       0.00000000
C       36.43268750      33.86720000       0.00000000       0.00000000      12.01100000      -0.93693425      -0.17335732      -0.87116225      -0.00001954       0.01824208       0.00000000
C       36.43268750      32.44120000       0.00000000       0.00000000      12.01100000       0.75703395       0.71176984       0.35003357      -0.00002038       0.00741617       0.00000000
C       35.19768750      31.72820000       0.00000000       0.00000000      12.01100000       0.45084158       0.36307685       0.98587055      -0.00014447       0.00364122       0.00000000
C       35.19768750      34.58120000       0.00000000       0.00000000      12.01100000      -0.01830183      -0.72866964       0.48784565      -0.00014475      -0.04094177       0.00000000
C       36.43268750      38.14520000       0.00000000       0.00000000      12.01100000      -0.38880002      -0.40613573      -0.35856455      -0.00002026       0.01597825       0.00000000
C       36.43268750      36.72020000       0.00000000       0.00000000      12.01100000      -0.25631991      -0.11802549       0.56193587      -0.00002025      -0.04115795       0.00000000
C       35.19768750      36.00620000       0.00000000       0.00000000      12.01100000      -0.68711511       0.35203558       0.27936994      -0.00014510       0.03598329       0.00000000
C       35.19768750      38.85820000       0.00000000       0.00000000      12.01100000       0.17678826       0.83781617      -0.93709585      -0.00014498       0.00516879       0.00000000
C       36.43268750      42.42420000       0.00000000       0.00000000      12.01100000      -0.82303425      -0.25063256       0.58517716      -0.00002088      -0.04649628       0.00000000
C       36.43268750      40.99720000       0.00000000       0.00000000      12.01100000      -0.73220899      -0.01300166       0.24120129      -0.00002100       0.01771509       0.00000000
C       35.19768750      40.28420000       0.00000000       0.00000000      12.01100000      -0.22820800      -0.20597747       1.48914580      -0.00014481       0.00466511       0.00000000
C       37.66768750      21.74620000       0.00000000       0.00000000      12.01100000      -0.29365386       0.55720091      -0.27826873      -0.00000729       0.01602305       0.00000000
C       38.90268750      25.31220000       0.00000000       0.00000000      12.01100000       0.89146712      -0.03439622       0.32835237      -0.00015073      -0.04665805       0.00000000
C       38.90268750      23.88520000       0.00000000       0.00000000      12.01100000       1.09603715       0.54071737       1.02271398      -0.00014859       0.01664582       0.00000000
C       37.66768750      23.17220000       0.00000000       0.00000000      12.01100000       0.87007859      -0.33736931      -0.83140149      -0.00000648       0.01398018       0.00000000
C       37.66768750      26.02420000       0.00000000       0.00000000      12.01100000      -0.75236292      -0.55830350      -0.05736760      -0.00000673       0.02247472       0.00000000
C       38.90268750      29.59020000       0.00000000       0.00000000      12.01100000      -0.14330293       0.55430221       0.50626835      -0.00014938      -0.02947923       0.00000000
C       38.90268750      28.16420000       0.00000000       0.00000000      12.01100000       0.03855451       0.09066081       0.01776491      -0.00014720      -0.03145012       0.00000000
C       37.66768750      27.45020000       0.00000000       0.00000000      12.01100000      -0.41779502      -0.94646451       0.20645255      -0.00000735       0.03238337       0.00000000
C       37.66768750      30.30220000       0.00000000       0.00000000      12.01100000       0.26601974      -0.04828335      -0.55894930      -0.00000786       0.02589694       0.00000000
C       38.90268750      33.86720000       0.00000000       0.00000000      12.01100000       0.24683322       0.06599628      -0.68116654      -0.00014766       0.01817854       0.00000000
C       38.90268750      32.44120000       0.00000000       0.00000000      12.01100000      -0.36574420      -0.80187208       0.36446224      -0.00015182       0.00747925       0.00000000
C       37.66768750      31.72820000       0.00000000       0.00000000      12.01100000       1.13796132       0.59427851      -1.30721882      -0.00000723       0.00366493       0.00000000
C       37.66768750      34.58120000       0.00000000       0.00000000      12.01100000      -0.46423283       0.25243492       0.17798803      -0.00000820      -0.04096629       0.00000000
C       38.90268750      38.14520000       0.00000000       0.00000000      12.01100000       0.43799495      -0.90767348       0.07542006      -0.00015022       0.01591442       0.00000000
C       38.90268750      36.72020000       0.00000000       0.00000000      12.01100000      -0.07152472      -0.19827836      -0.18963756      -0.00014751      -0.04109570       0.00000000
C       37.66768750      36.00620000       0.00000000       0.00000000      12.01100000      -0.13328007      -0.72025119      -0.61443033      -0.00000843       0.03600799       0.00000000
C       37.66768750      38.85820000       0.00000000       0.00000000      12.01100000       0.03450881      -0.28530342       0.17367405      -0.00000732       0.00514676       0.00000000
C       38.90268750      42.42420000       0.00000000       0.00000000      12.01100000      -0.21602310      -0.01771027       0.86701789      -0.00014913      -0.04656462       0.00000000
C       38.90268750      40.99720000       0.00000000       0.00000000      12.01100000      -0.33666748       0.55862495       0.20935514      -0.00014888       0.01778228       0.00000000
C       37.66768750      40.28420000       0.00000000       0.00000000      12.01100000       0.13914078      -0.61751804      -0.50560964      -0.00000662       0.00468621       0.00000000
C        0.61768750      21.74620000       0.00000000       0.00000000      12.01100000      -0.00323258      -0.57032345      -0.22003633      -0.00031169       0.01543431       0.00000000
C        1.85268750      25.31220000       0.00000000       0.00000000      12.01100000       0.62138264      -0.61124366       0.29876436      -0.00380579      -0.04827559       0.00000000
C        1.85268750      23.88520000       0.00000000       0.00000000      12.01100000      -0.29827958       1.02454674       0.73380524      -0.00379466       0.01826162       0.00000000
C        0.61768750      23.17220000       0.00000000       0.00000000      12.01100000      -0.18095510       0.00077703      -1.04266137      -0.00031266       0.01456852       0.00000000
C        0.61768750      26.02420000       0.00000000       0.00000000      12.01100000      -0.90573797       1.40084488       0.43568968      -0.00031034       0.02188642       0.00000000
C        1.85268750      29.59020000       0.00000000       0.00000000      12.01100000      -0.71206131       0.30376318      -0.69640515      -0.00380229      -0.03109526       0.00000000
C        1.85268750      28.16420000       0.00000000       0.00000000      12.01100000      -1.04320587       0.95952107      -0.52131875      -0.00378154      -0.02983917       0.00000000
C        0.61768750      27.45020000       0.00000000       0.00000000      12.01100000       0.10214448      -0.51505803       0.21255707      -0.00031366       0.03297199       0.00000000
C        0.61768750      30.30220000       0.00000000       0.00000000      12.01100000      -0.73789462       0.81528605       0.86772850      -0.00031290       0.02530412       0.00000000
C        1.85268750      33.86720000       0.00000000       0.00000000      12.01100000       0.10752341      -0.43912192       0.03965000      -0.00378207       0.01657159       0.00000000
C        1.85268750      32.44120000       0.00000000       0.00000000      12.01100000       0.29913894      -1.29327218      -0.39248086      -0.00379009       0.00908754       0.00000000
C        0.61768750      31.72820000       0.00000000       0.00000000      12.01100000       0.33546939      -0.03477259       0.42110894      -0.00031026       0.00425592       0.00000000
C        0.61768750      34.58120000       0.00000000       0.00000000      12.01100000       0.11988839       0.19084244       0.51625977      -0.00031425      -0.04155080       0.00000000
C        1.85268750      38.14520000       0.00000000       0.00000000      12.01100000       0.31493039       1.02619149       0.33107288      -0.00379311       0.01430385       0.00000000
C        1.85268750      36.72020000       0.00000000       0.00000000      12.01100000      -0.01867157       0.47406892       0.06849009      -0.00377781      -0.03948939       0.00000000
C        0.61768750      36.00620000       0.00000000       0.00000000      12.01100000      -0.73789586       0.54448864       0.32839834      -0.00031482       0.03659175       0.00000000
C        0.61768750      38.85820000       0.00000000       0.00000000      12.01100000      -0.01514797      -0.48199127      -0.65391339      -0.00031011       0.00455759       0.00000000
C        1.85268750      42.42420000       0.00000000       0.00000000      12.01100000      -0.61163842       0.15282364       0.02870330      -0.00380565      -0.04818141       0.00000000
C        1.85268750      40.99720000       0.00000000       0.00000000      12.01100000       0.07156271       0.79690577       0.27405064      -0.00379524       0.01939639       0.00000000
C        0.61768750      40.28420000       0.00000000       0.00000000      12.01100000       0.50508587       0.58538354       0.26175527      -0.00031265       0.00527644       0.00000000
C        3.08768750      21.74620000       0.00000000       0.00000000      12.01100000       0.09615542      -0.40816141      -0.29763283      -0.01307132       0.01649143       0.00000000
C        4.32168750      25.31220000       0.00000000       0.00000000      12.01100000       1.21407898       0.25671517       0.56508829       0.03368554      -0.04606184       0.00000000
C        4.32168750      23.88520000       0.00000000       0.00000000      12.01100000      -0.15108741       0.89315761       0.02227153       0.03359938       0.01605098       0.00000000
C        3.08768750      23.17220000       0.00000000       0.00000000      12.01100000      -0.34043342       0.44267206      -0.70679362      -0.01303942       0.01353730       0.00000000
C        3.08768750      26.02420000       0.00000000       0.00000000      12.01100000      -0.24223582      -0.63341136      -0.34919280      -0.01306967       0.02295028       0.00000000
C        4.32168750      29.59020000       0.00000000       0.00000000      12.01100000      -0.11631619       1.40754571      -0.25165341       0.03370800      -0.02889036       0.00000000
C        4.32168750      28.16420000       0.00000000       0.00000000      12.01100000       0.38600140       0.09950490      -0.15487178       0.03354776      -0.03204311       0.00000000
C        3.08768750      27.45020000       0.00000000       0.00000000      12.01100000      -0.47698452      -0.34419878       0.64810707      -0.01302411       0.03195732       0.00000000
C        3.08768750      30.30220000       0.00000000       0.00000000      12.01100000      -0.39656294      -0.05583725      -0.53443877      -0.01308554       0.02637232       0.00000000
C        4.32168750      33.86720000       0.00000000       0.00000000      12.01100000       0.79073139      -0.03754411       0.44988482       0.03357846       0.01877091       0.00000000
C        4.32168750      32.44120000       0.00000000       0.00000000      12.01100000      -0.25539402       0.48896912      -0.53246296       0.03362392       0.00688742       0.00000000
C        3.08768750      31.72820000       0.00000000       0.00000000      12.01100000      -0.20655191      -1.65923752       0.47235831      -0.01305722       0.00321903       0.00000000
C        3.08768750      34.58120000       0.00000000       0.00000000      12.01100000       0.76795102       0.70765836       0.25713845      -0.01303425      -0.04054869       0.00000000
C        4.32168750      38.14520000       0.00000000       0.00000000      12.01100000      -0.35944189      -0.67311334      -0.37466320       0.03364301       0.01650362       0.00000000
C        4.32168750      36.72020000       0.00000000       0.00000000      12.01100000       0.29843040       0.79165436       0.42462666       0.03359459      -0.04168666       0.00000000
C        3.08768750      36.00620000       0.00000000       0.00000000      12.01100000      -0.98567815       0.15298684      -0.95926991      -0.01304930       0.03558540       0.00000000
C        3.08768750      38.85820000       0.00000000       0.00000000      12.01100000      -0.37855588      -0.94741445       0.41391709      -0.01306795       0.00560583       0.00000000
C        4.32168750      42.42420000       0.00000000       0.00000000      12.01100000      -0.88065961       0.57992705       0.98729049       0.03367880      -0.04597026       0.00000000
C        4.32168750      40.99720000       0.00000000       0.00000000      12.01100000      -0.25584243       1.14441882       0.40443845       0.03360567       0.01718787       0.00000000
C        3.08768750      40.28420000       0.00000000       0.00000000      12.01100000       0.28265051      -0.04170845      -0.07589270      -0.01303776       0.00423950       0.00000000
C        5.55768750      21.74620000       0.00000000       0.00000000      12.01100000      -0.07369111       0.16893119      -0.72611110      -0.01680410       0.01675776       0.00000000
C        6.79268750      25.31220000       0.00000000       0.00000000      12.01100000       0.24127122      -0.15629110       0.36296355      -0.02029179      -0.04701362       0.00000000
C        6.79268750      23.88520000       0.00000000       0.00000000      12.01100000      -0.03875915       0.62081439       0.72829922      -0.02023067       0.01697634       0.00000000
C        5.55768750      23.17220000       0.00000000       0.00000000      12.01100000       1.05297426      -0.11405167      -0.09485669      -0.01676467       0.01321939       0.00000000
C        5.55768750      26.02420000       0.00000000       0.00000000      12.01100000      -0.07050910       1.25831287      -0.70464353      -0.01680155       0.02320243       0.00000000
C        6.79268750      29.59020000       0.00000000       0.00000000      12.01100000       0.49605591      -0.23863298      -0.25245223      -0.02029706      -0.02982269       0.00000000
C        6.79268750      28.16420000       0.00000000       0.00000000      12.01100000       0.11581374       1.24980070       0.46856554      -0.02019050      -0.03116044       0.00000000
C        5.55768750      27.45020000       0.00000000       0.00000000      12.01100000       0.11714182       0.45736395      -0.37181206      -0.01674153       0.03161904       0.00000000
C        5.55768750      30.30220000       0.00000000       0.00000000      12.01100000       0.11149563       1.14464371       0.48988848      -0.01681351       0.02661985       0.00000000
C        6.79268750      33.86720000       0.00000000       0.00000000      12.01100000      -0.73256399       0.43823035      -0.31909072      -0.02020594       0.01787883       0.00000000
C        6.79268750      32.44120000       0.00000000       0.00000000      12.01100000       0.15734699       0.17440862      -1.08414821      -0.02024289       0.00780093       0.00000000
C        5.55768750      31.72820000       0.00000000       0.00000000      12.01100000       0.31418582      -1.05069698       0.61799226      -0.01677635       0.00291669       0.00000000
C        5.55768750      34.58120000       0.00000000       0.00000000      12.01100000       0.23866555      -0.53073792       0.84495541      -0.01675187      -0.04019866       0.00000000
C        6.79268750      38.14520000       0.00000000       0.00000000      12.01100000       0.81235412       0.17568790       0.43746664      -0.02024690       0.01561032       0.00000000
C        6.79268750      36.72020000       0.00000000       0.00000000      12.01100000      -1.62643110      -0.01637682      -0.28392032      -0.02021030      -0.04081424       0.00000000
C        5.55768750      36.00620000       0.00000000       0.00000000      12.01100000      -0.45359086       0.10949279       0.14611410      -0.01676249       0.03524521       0.00000000
C        5.55768750      38.85820000       0.00000000       0.00000000      12.01100000       0.49421178       0.12355457      -0.62483665      -0.01678885       0.00587934       0.00000000
C        6.79268750      42.42420000       0.00000000       0.00000000      12.01100000       0.77548167       0.73041750      -0.14487987      -0.02028423      -0.04692113       0.00000000
C        6.79268750      40.99720000       0.00000000       0.00000000      12.01100000      -0.18722875      -0.66318586       0.63463101      -0.02023541       0.01811138       0.00000000
C        5.55768750      40.28420000       0.00000000       0.00000000      12.01100000       0.70676988      -0.00769879      -0.78297847      -0.01676335       0.00394146       0.00000000
C        8.02668750      21.74620000       0.00000000       0.00000000      12.01100000       0.34640027      -0.15606733       0.30267207       0.02101811       0.01704233       0.00000000
C        9.26168750      25.31220000       0.00000000       0.00000000      12.01100000      -0.51749192       0.51914567       0.06897389       0.02108607      -0.04611635       0.00000000
C        9.26168750      23.88520000       0.00000000       0.00000000      12.01100000       0.54511131      -0.84107082      -0.45141150       0.02103696       0.01613429       0.00000000
C        8.02668750      23.17220000       0.00000000       0.00000000      12.01100000      -0.85277765      -0.49286341       0.78341171       0.02096337       0.01298822       0.00000000
C        8.02668750      26.02420000       0.00000000       0.00000000      12.01100000       0.02130003       0.75035583       0.45492414       0.02102031       0.02349765       0.00000000
C        9.26168750      29.59020000       0.00000000       0.00000000      12.01100000      -0.44496619      -0.58988199       1.37237116       0.02109857      -0.02895620       0.00000000
C        9.26168750      28.16420000       0.00000000       0.00000000      12.01100000      -0.24995379       0.76805650      -0.56828441       0.02099993      -0.03191920       0.00000000
C        8.02668750      27.45020000       0.00000000       0.00000000      12.01100000       1.20588858      -0.13648246       0.09302373       0.02092312       0.03141017       0.00000000
C        8.02668750      30.30220000       0.00000000       0.00000000      12.01100000       0.80920266      -0.04584261       1.43789592       0.02102376       0.02692176       0.00000000
C        9.26168750      33.86720000       0.00000000       0.00000000      12.01100000       0.88386801      -0.49601912      -0.48772731       0.02101031       0.01865642       0.00000000
C        9.26168750      32.44120000       0.00000000       0.00000000      12.01100000       0.26288541       0.21054503      -0.02053480       0.02105076       0.00697681       0.00000000
C        8.02668750      31.72820000       0.00000000       0.00000000      12.01100000       0.50231259      -0.36876073      -0.80829761       0.02097176       0.00266804       0.00000000
C        8.02668750      34.58120000       0.00000000       0.00000000      12.01100000      -0.04187771       0.14849808       0.33321943       0.02093337      -0.04000092       0.00000000
C        9.26168750      38.14520000       0.00000000       0.00000000      12.01100000       0.11543262      -0.37397034       0.33091544       0.02105961       0.01639493       0.00000000
C        9.26168750      36.72020000       0.00000000       0.00000000      12.01100000      -0.03036870       0.01923946      -0.62068359       0.02102086      -0.04155252       0.00000000
C        8.02668750      36.00620000       0.00000000       0.00000000      12.01100000       0.37154174       0.42090611       0.92928626       0.02094022       0.03503800       0.00000000
C        8.02668750      38.85820000       0.00000000       0.00000000      12.01100000      -0.45803359       0.37654911      -0.01622687       0.02098158       0.00615248       0.00000000
C        9.26168750      42.42420000       0.00000000       0.00000000      12.01100000       1.13011020       0.36785902      -0.81749393       0.02108546      -0.04602257       0.00000000
C        9.26168750      40.99720000       0.00000000       0.00000000      12.01100000       0.09260639       0.51421174       0.44292321       0.02103797       0.01726929       0.00000000
C        8.02668750      40.28420000       0.00000000       0.00000000      12.01100000      -0.71520225      -0.56727059       0.39705274       0.02096372       0.00369039       0.00000000
C       10.49768750      21.74620000       0.00000000       0.00000000      12.01100000      -0.31455715      -0.19754538       0.57897109      -0.01656394       0.01397982       0.00000000
C       11.73268750      25.31220000       0.00000000       0.00000000      12.01100000      -0.14139157      -0.22141173      -0.47638707      -0.00402255      -0.04549613       0.00000000
C       11.73268750      23.88520000       0.00000000       0.00000000      12.01100000       0.92336469      -0.73595398       0.71321197      -0.00401361       0.01549025       0.00000000
C       10.49768750      23.17220000       0.00000000       0.00000000      12.01100000       0.53001918      -0.24676871      -0.33627671      -0.01652597       0.01598947       0.00000000
C       10.49768750      26.02420000       0.00000000       0.00000000      12.01100000       0.95009304       0.22548369      -1.62674813      -0.01656346       0.02042855       0.00000000
C       11.73268750      29.59020000       0.00000000       0.00000000      12.01100000      -0.25269136       0.35629813      -0.48919398      -0.00402262      -0.02831716       0.00000000
C       11.73268750      28.16420000       0.00000000       0.00000000      12.01100000      -0.48362818       0.36799433      -0.33349021      -0.00400238      -0.03260070       0.00000000
C       10.49768750      27.45020000       0.00000000       0.00000000      12.01100000      -0.02781223      -0.02837366       0.15465290      -0.01650034       0.03437348       0.00000000
C       10.49768750      30.30220000       0.00000000       0.00000000      12.01100000       0.10902403      -0.72264718       0.19630417      -0.01657346       0.02385178       0.00000000
C       11.73268750      33.86720000       0.00000000       0.00000000      12.01100000       0.51037282       0.05801739       0.06168394      -0.00399872       0.01932544       0.00000000
C       11.73268750      32.44120000       0.00000000       0.00000000      12.01100000       0.26791282       0.48747398       0.34630069      -0.00401390       0.00632672       0.00000000
C       10.49768750      31.72820000       0.00000000       0.00000000      12.01100000      -0.55095247       0.18618815       0.58189961      -0.01653857       0.00567558       0.00000000
C       10.49768750      34.58120000       0.00000000       0.00000000      12.01100000       0.29384278      -0.34909091       0.47371255      -0.01650819      -0.04293764       0.00000000
C       11.73268750      38.14520000       0.00000000       0.00000000      12.01100000       0.40433263      -0.17746737      -0.75874155      -0.00401265       0.01706745       0.00000000
C       11.73268750      36.72020000       0.00000000       0.00000000      12.01100000      -0.72419998      -0.21273862      -0.40751135      -0.00399690      -0.04224348       0.00000000
C       10.49768750      36.00620000       0.00000000       0.00000000      12.01100000      -1.03313736      -0.14597331       0.31872864      -0.01652100       0.03798595       0.00000000
C       10.49768750      38.85820000       0.00000000       0.00000000      12.01100000      -0.67296717      -0.26269793      -0.21065967      -0.01655119       0.00312362       0.00000000
C       11.73268750      42.42420000       0.00000000       0.00000000      12.01100000       0.25024522       0.75967828       0.30678592      -0.00402247      -0.04540158       0.00000000
C       11.73268750      40.99720000       0.00000000       0.00000000      12.01100000       0.08145072      -0.54056895       0.28225239      -0.00401070       0.01662404       0.00000000
C       10.49768750      40.28420000       0.00000000       0.00000000      12.01100000      -1.21235996       0.26446814      -0.61417511      -0.01652321       0.00669870       0.00000000
C       12.96768750      21.74620000       0.00000000       0.00000000      12.01100000       0.56774638       0.64979125       0.11071751      -0.00041585       0.01656569       0.00000000
C       14.20268750      25.31220000       0.00000000       0.00000000      12.01100000      -1.13947020      -0.08782376      -0.60244589      -0.00017560      -0.04652844       0.00000000
C       14.20268750      23.88520000       0.00000000       0.00000000      12.01100000      -0.81044709      -0.72136170      -0.81787117      -0.00017364       0.01651664       0.00000000
C       12.96768750      23.17220000       0.00000000       0.00000000      12.01100000      -0.02916207      -0.16339182       0.27109579      -0.00041657       0.01343365       0.00000000
C       12.96768750      26.02420000       0.00000000       0.00000000      12.01100000       0.10782602       0.30272864      -0.48001615      -0.00041613       0.02301683       0.00000000
C       14.20268750      29.59020000       0.00000000       0.00000000      12.01100000       0.34954021      -0.44371755      -0.77361595      -0.00017803      -0.02935115       0.00000000
C       14.20268750      28.16420000       0.00000000       0.00000000      12.01100000      -0.38837231      -0.88892495       0.12566389      -0.00017498      -0.03157599       0.00000000
C       12.96768750      27.45020000       0.00000000       0.00000000      12.01100000      -0.85471192      -0.28133496      -0.12061129      -0.00041626       0.03184225       0.00000000
C       12.96768750      30.30220000       0.00000000       0.00000000      12.01100000      -0.12934701       0.23140122       0.78023439      -0.00041519       0.02643794       0.00000000
C       14.20268750      33.86720000       0.00000000       0.00000000      12.01100000       0.42803628      -0.48149114       1.06523526      -0.00017414       0.01830274       0.00000000
C       14.20268750      32.44120000       0.00000000       0.00000000      12.01100000       0.29714422       0.53292712       0.39580308      -0.00017488       0.00735165       0.00000000
C       12.96768750      31.72820000       0.00000000       0.00000000      12.01100000       0.01898870      -0.95184122      -0.32520146      -0.00041458       0.00311887       0.00000000
C       12.96768750      34.58120000       0.00000000       0.00000000      12.01100000      -0.07772928      -0.86003657       0.91591090      -0.00041885      -0.04042601       0.00000000
C       14.20268750      38.14520000       0.00000000       0.00000000      12.01100000      -0.69334957       0.51327921      -0.22124081      -0.00017565       0.01603968       0.00000000
C       14.20268750      36.72020000       0.00000000       0.00000000      12.01100000      -1.11606569      -0.10760290      -0.50833382      -0.00017667      -0.04121817       0.00000000
C       12.96768750      36.00620000       0.00000000       0.00000000      12.01100000      -0.24692788      -0.08060957      -0.11650361      -0.00041821       0.03546850       0.00000000
C       12.96768750      38.85820000       0.00000000       0.00000000      12.01100000       0.13872893       0.76819870       0.07350233      -0.00041416       0.00568743       0.00000000
C       14.20268750      42.42420000       0.00000000       0.00000000      12.01100000       0.27037404      -0.18277765      -0.25081678      -0.00017481      -0.04643304       0.00000000
C       14.20268750      40.99720000       0.00000000       0.00000000      12.01100000       0.41550188      -0.68530328       0.04770278      -0.00017375       0.01765087       0.00000000
C       12.96768750      40.28420000       0.00000000       0.00000000      12.01100000      -0.01845358      -0.35715453      -0.63671689      -0.00041841       0.00414594       0.00000000
C       15.43768750      21.74620000       0.00000000       0.00000000      12.01100000      -0.79458777      -0.13010979      -0.00050557      -0.00008985       0.01604087       0.00000000
C       16.67268750      25.31220000       0.00000000       0.00000000      12.01100000      -0.67936346      -0.39719199       0.12958633      -0.00007649      -0.04658949       0.00000000
C       16.67268750      23.88520000       0.00000000       0.00000000      12.01100000       0.36541081      -0.73792143       0.75635969      -0.00007581       0.01657914       0.00000000
C       15.43768750      23.17220000       0.00000000       0.00000000      12.01100000      -0.90741296      -0.01807712       0.29459704      -0.00009173       0.01396144       0.00000000
C       15.43768750      26.02420000       0.00000000       0.00000000      12.01100000      -0.69358730       0.51924585       0.11033377      -0.00009125       0.02249265       0.00000000
C       16.67268750      29.59020000       0.00000000       0.00000000      12.01100000      -0.85733418      -0.87993939      -0.44834447      -0.00007802      -0.02941167       0.00000000
C       16.67268750      28.16420000       0.00000000       0.00000000      12.01100000      -0.56709742      -0.32887614       0.07852529      -0.00007789      -0.03151785       0.00000000
C       15.43768750      27.45020000       0.00000000       0.00000000      12.01100000      -0.30752820      -0.53928547       0.82323924      -0.00009143       0.03236652       0.00000000
C       15.43768750      30.30220000       0.00000000       0.00000000      12.01100000       0.04544783      -0.02582546       0.91991431      -0.00009067       0.02591285       0.00000000
C       16.67268750      33.86720000       0.00000000       0.00000000      12.01100000      -0.14950875       0.34546146      -0.06150074      -0.00007673       0.01824446       0.00000000
C       16.67268750      32.44120000       0.00000000       0.00000000      12.01100000       0.29662466       0.29705714      -0.29728111      -0.00007597       0.00741263       0.00000000
C       15.43768750      31.72820000       0.00000000       0.00000000      12.01100000      -0.05570793      -0.30143031       0.94388250      -0.00009226       0.00364783       0.00000000
C       15.43768750      34.58120000       0.00000000       0.00000000      12.01100000      -0.17315553      -1.29457553      -0.70653083      -0.00009097      -0.04094721       0.00000000
C       16.67268750      38.14520000       0.00000000       0.00000000      12.01100000      -0.04215970      -0.20702072      -0.53737388      -0.00007760       0.01598058       0.00000000
C       16.67268750      36.72020000       0.00000000       0.00000000      12.01100000      -0.40667630      -1.10363104      -0.27099460      -0.00007586      -0.04116157       0.00000000
C       15.43768750      36.00620000       0.00000000       0.00000000      12.01100000       0.21509448       0.08375617       0.50299643      -0.00009064       0.03598968       0.00000000
C       15.43768750      38.85820000       0.00000000       0.00000000      12.01100000       0.75110316      -0.02671576       0.10454114      -0.00009038       0.00516267       0.00000000
C       16.67268750      42.42420000       0.00000000       0.00000000      12.01100000      -0.05542502       0.20983767       0.41456640      -0.00007664      -0.04649430       0.00000000
C       16.67268750      40.99720000       0.00000000       0.00000000      12.01100000       0.20697041      -0.46784095       0.12283657      -0.00007615       0.01771254       0.00000000
C       15.43768750      40.28420000       0.00000000       0.00000000      12.01100000       0.20422280       0.91277418      -0.18117675      -0.00009230       0.00467031       0.00000000
C       17.90768750      21.74620000       0.00000000       0.00000000      12.01100000       0.04467215      -0.16503050       0.49915800      -0.00005175       0.01602313       0.00000000
C       19.14268750      25.31220000       0.00000000       0.00000000      12.01100000      -0.13119571       0.26536795       0.41705610      -0.00012049      -0.04665904       0.00000000
C       19.14268750      23.88520000       0.00000000       0.00000000      12.01100000      -0.35284677      -0.25238628       0.89445785      -0.00011647       0.01664911       0.00000000
C       17.90768750      23.17220000       0.00000000       0.00000000      12.01100000      -0.72900787       0.85163859      -0.90574909      -0.00005200       0.01397861       0.00000000
C       17.90768750      26.02420000       0.00000000       0.00000000      12.01100000       0.19187580      -0.44755086      -0.63979098      -0.00005036       0.02247371       0.00000000
C       19.14268750      29.59020000       0.00000000       0.00000000      12.01100000       0.69614029      -0.00821262       0.00165321      -0.00011910      -0.02948183       0.00000000
C       19.14268750      28.16420000       0.00000000       0.00000000      12.01100000       0.39042375       0.77363177       0.11953830      -0.00011492      -0.03144901       0.00000000
C       17.90768750      27.45020000       0.00000000       0.00000000      12.01100000      -0.98183252       0.40134764      -0.38820328      -0.00005149       0.03238414       0.00000000
C       17.90768750      30.30220000       0.00000000       0.00000000      12.01100000      -0.44292400       0.31518385       0.82912593      -0.00005159       0.02589681       0.00000000
C       19.14268750      33.86720000       0.00000000       0.00000000      12.01100000       0.34265632      -0.02071005      -0.74586964      -0.00011580       0.01817606       0.00000000
C       19.14268750      32.44120000       0.00000000       0.00000000      12.01100000       0.11751115       0.11054114       0.83394551      -0.00011831       0.00748217       0.00000000
C       17.90768750      31.72820000       0.00000000       0.00000000      12.01100000       0.14328588       0.82235896      -0.29490535      -0.00005176       0.00366468       0.00000000
C       17.90768750      34.58120000       0.00000000       0.00000000      12.01100000      -0.17302005      -0.53108839       0.39771923      -0.00005241      -0.04096588       0.00000000
C       19.14268750      38.14520000       0.00000000       0.00000000      12.01100000      -0.07906943      -0.59815627       0.12803022      -0.00011810       0.01590975       0.00000000
C       19.14268750      36.72020000       0.00000000       0.00000000      12.01100000       0.99199880      -0.66520694      -0.21264515      -0.00011623      -0.04109179       0.00000000
C       17.90768750      36.00620000       0.00000000       0.00000000      12.01100000       1.63857418       0.09418148      -0.34294797      -0.00005336       0.03600802       0.00000000
C       17.90768750      38.85820000       0.00000000       0.00000000      12.01100000      -0.45194116       0.85831169      -0.05827300      -0.00005249       0.00514591       0.00000000
C       19.14268750      42.42420000       0.00000000       0.00000000      12.01100000       0.67591738      -0.47723207      -1.26749954      -0.00011748      -0.04656643       0.00000000
C       19.14268750      40.99720000       0.00000000       0.00000000      12.01100000       1.05857711       0.13953660      -0.02052735      -0.00011762       0.01778390       0.00000000
C       17.90768750      40.28420000       0.00000000       0.00000000      12.01100000       0.59348778       1.17551234      -0.69661012      -0.00005091       0.00468783       0.00000000
C       20.37768750       0.35620000       0.00000000       0.00000000      12.01100000       0.31716255      -0.58386433      -0.20522797      -0.00029594       0.01542218       0.00000000
C       21.61268750       3.92220000       0.00000000       0.00000000      12.01100000      -0.32183365      -0.08819843       0.70562532      -0.00383393      -0.04825231       0.00000000
C       21.61268750       2.49520000       0.00000000       0.00000000      12.01100000       0.38804342       0.37505108      -0.53179892      -0.00381909       0.01828226       0.00000000
C       20.37768750       1.78220000       0.00000000       0.00000000      12.01100000      -0.02148528       0.16612127       0.10153133      -0.00029837       0.01449600       0.00000000
C       20.37768750       4.63420000       0.00000000       0.00000000      12.01100000      -0.89112760      -0.37143808      -0.33524232      -0.00029605       0.02190896       0.00000000
C       21.61268750       8.20020000       0.00000000       0.00000000      12.01100000      -0.59535768      -0.87693917      -0.70873117      -0.00383165      -0.03108302       0.00000000
C       21.61268750       6.77420000       0.00000000       0.00000000      12.01100000       0.41004755       0.41271107       0.53057933      -0.00380825      -0.02983705       0.00000000
C       20.37768750       6.06020000       0.00000000       0.00000000      12.01100000      -0.68829558       0.35658686       0.74868053      -0.00029874       0.03291046       0.00000000
C       20.37768750       8.91220000       0.00000000       0.00000000      12.01100000       0.70985397       0.34268944      -0.76058356      -0.00029691       0.02529040       0.00000000
C       21.61268750      12.47720000       0.00000000       0.00000000      12.01100000       0.45367497       0.24023041      -0.36554987      -0.00380870       0.01655473       0.00000000
C       21.61268750      11.05120000       0.00000000       0.00000000      12.01100000      -0.55879084      -0.52429489      -0.03193696      -0.00381929       0.00908951       0.00000000
C       20.37768750      10.33820000       0.00000000       0.00000000      12.01100000       1.00885936      -0.32249226       0.00725473      -0.00029671       0.00430545       0.00000000
C       20.37768750      13.19120000       0.00000000       0.00000000      12.01100000      -0.42568531      -0.84436364       0.12765233      -0.00029899      -0.04153834       0.00000000
C       21.61268750      16.75520000       0.00000000       0.00000000      12.01100000       0.35074517      -0.19919442      -0.87603457      -0.00381929       0.01431456       0.00000000
C       21.61268750      15.33020000       0.00000000       0.00000000      12.01100000      -0.42086885       0.48937648       0.69358309      -0.00380374      -0.03947654       0.00000000
C       20.37768750      14.61620000       0.00000000       0.00000000      12.01100000       0.20743105      -0.68892941       0.24596685      -0.00030052       0.03654451       0.00000000
C       20.37768750      17.46820000       0.00000000       0.00000000      12.01100000       0.28341861      -0.10505497      -0.91262925      -0.00029566       0.00455492       0.00000000
C       21.61268750      21.03420000       0.00000000       0.00000000      12.01100000      -0.91511024      -0.16646053      -0.15404710      -0.00383393      -0.04827613       0.00000000
C       21.61268750      19.60720000       0.00000000       0.00000000      12.01100000       1.01462276       0.40512313      -0.34954420      -0.00382222       0.01943048       0.00000000
C       20.37768750      18.89420000       0.00000000       0.00000000      12.01100000      -0.18905103       0.34118602      -0.18648167      -0.00029835       0.00528686       0.00000000
C       22.84768750       0.35620000       0.00000000       0.00000000      12.01100000       0.19396560      -0.63818042       0.23114271      -0.01303040       0.01647772       0.00000000
C       24.08168750       3.92220000       0.00000000       0.00000000      12.01100000       0.42568550      -0.03041523      -0.10924263       0.03367444      -0.04604059       0.00000000
C       24.08168750       2.49520000       0.00000000       0.00000000      12.01100000      -0.07805709      -1.13647782      -0.88897201       0.03359341       0.01607638       0.00000000
C       22.84768750       1.78220000       0.00000000       0.00000000      12.01100000       0.53721676      -1.25449829       0.49733077      -0.01300451       0.01346913       0.00000000
C       22.84768750       4.63420000       0.00000000       0.00000000      12.01100000      -0.04172224      -0.80728528      -0.09793582      -0.01302933       0.02296968       0.00000000
C       24.08168750       8.20020000       0.00000000       0.00000000      12.01100000       0.19205660      -1.00654636       0.17996029       0.03369671      -0.02887979       0.00000000
C       24.08168750       6.77420000       0.00000000       0.00000000      12.01100000      -0.67332888      -0.43505228      -0.22948751       0.03353670      -0.03203871       0.00000000
C       22.84768750       6.06020000       0.00000000       0.00000000      12.01100000       0.10132042      -0.84800264       0.23207942      -0.01298534       0.03190173       0.00000000
C       22.84768750       8.91220000       0.00000000       0.00000000      12.01100000       0.04690719       0.07041632       0.49477566      -0.01304726       0.02635296       0.00000000
C       24.08168750      12.47720000       0.00000000       0.00000000      12.01100000      -0.58626726      -0.47091404       0.40941975       0.03356794       0.01875076       0.00000000
C       24.08168750      11.05120000       0.00000000       0.00000000      12.01100000      -0.52673854      -0.70929274      -0.82630581       0.03361380       0.00689174       0.00000000
C       22.84768750      10.33820000       0.00000000       0.00000000      12.01100000      -0.36395816      -0.32646451      -0.12456980      -0.01301956       0.00327465       0.00000000
C       22.84768750      13.19120000       0.00000000       0.00000000      12.01100000      -0.13301628       0.49716412       0.32860388      -0.01299792      -0.04054098       0.00000000
C       24.08168750      16.75520000       0.00000000       0.00000000      12.01100000      -0.02952842      -0.75669573      -0.05161762       0.03363563       0.01650997       0.00000000
C       24.08168750      15.33020000       0.00000000       0.00000000      12.01100000      -1.00173091      -0.66717191       0.08776558       0.03358386      -0.04166921       0.00000000
C       22.84768750      14.61620000       0.00000000       0.00000000      12.01100000       0.20662574       0.45212148       0.23222219      -0.01301205       0.03554233       0.00000000
C       22.84768750      17.46820000       0.00000000       0.00000000      12.01100000       0.19477923      -0.01681298      -0.62380578      -0.01303053       0.00559794       0.00000000
C       24.08168750      21.03420000       0.00000000       0.00000000      12.01100000      -0.78615804       0.03997186       0.72401483       0.03367149      -0.04606709       0.00000000
C       24.08168750      19.60720000       0.00000000       0.00000000      12.01100000      -0.59850623      -0.23866911      -0.20501201       0.03359859       0.01722158       0.00000000
C       22.84768750      18.89420000       0.00000000       0.00000000      12.01100000      -0.36511528      -0.58584195      -0.99283382      -0.01300006       0.00425465       0.00000000
C       25.31768750       0.35620000       0.00000000       0.00000000      12.01100000      -0.26229942      -0.19848470       0.71322792      -0.01683471       0.01674444       0.00000000
C       26.55268750       3.92220000       0.00000000       0.00000000      12.01100000       0.18913897      -0.49501614       0.85664898      -0.02025507      -0.04699260       0.00000000
C       26.55268750       2.49520000       0.00000000       0.00000000      12.01100000       0.53188106      -0.66175599      -0.27692989      -0.02019982       0.01699997       0.00000000
C       25.31768750       1.78220000       0.00000000       0.00000000      12.01100000      -1.00864889       0.73251502      -0.07204340      -0.01679581       0.01315525       0.00000000
C       25.31768750       4.63420000       0.00000000       0.00000000      12.01100000      -0.58652319      -0.15622395       0.19109394      -0.01683407       0.02322045       0.00000000
C       26.55268750       8.20020000       0.00000000       0.00000000      12.01100000      -0.41857878       0.12864037      -0.47940829      -0.02026343      -0.02981129       0.00000000
C       26.55268750       6.77420000       0.00000000       0.00000000      12.01100000      -0.35260381       0.99780679       1.18364262      -0.02015367      -0.03115609       0.00000000
C       25.31768750       6.06020000       0.00000000       0.00000000      12.01100000      -0.36311589       0.11996013       0.18302054      -0.01677313       0.03156372       0.00000000
C       25.31768750       8.91220000       0.00000000       0.00000000      12.01100000      -0.65888925      -0.60433407      -0.69263468      -0.01684206       0.02660029       0.00000000
C       26.55268750      12.47720000       0.00000000       0.00000000      12.01100000       0.37014441      -0.12881205      -0.54730832      -0.02017174       0.01785567       0.00000000
C       26.55268750      11.05120000       0.00000000       0.00000000      12.01100000       0.87847435      -0.02726914      -0.03986532      -0.02020769       0.00780465       0.00000000
C       25.31768750      10.33820000       0.00000000       0.00000000      12.01100000       0.63806321      -0.54741683       0.22732612      -0.01680650       0.00297211       0.00000000
C       25.31768750      13.19120000       0.00000000       0.00000000      12.01100000       1.01046034       0.57262981       0.72258387      -0.01678194      -0.04018903       0.00000000
C       26.55268750      16.75520000       0.00000000       0.00000000      12.01100000       0.31760626       0.02982224       0.32391910      -0.02021379       0.01561665       0.00000000
C       26.55268750      15.33020000       0.00000000       0.00000000      12.01100000      -0.33539680      -0.16767456      -0.51827534      -0.02017566      -0.04079760       0.00000000
C       25.31768750      14.61620000       0.00000000       0.00000000      12.01100000      -0.40398880       0.51124730      -0.84647888      -0.01679301       0.03520243       0.00000000
C       25.31768750      17.46820000       0.00000000       0.00000000      12.01100000       0.52508276      -0.35708049       0.13482590      -0.01682228       0.00587294       0.00000000
C       26.55268750      21.03420000       0.00000000       0.00000000      12.01100000      -0.85061273      -0.19925047      -0.06054996      -0.02025225      -0.04701742       0.00000000
C       26.55268750      19.60720000       0.00000000       0.00000000      12.01100000       0.25581165       1.17856610       0.62041933      -0.02020360       0.01814665       0.00000000
C       25.31768750      18.89420000       0.00000000       0.00000000      12.01100000       0.11065790       0.57970980       0.28713187      -0.01679612       0.00395816       0.00000000
C       27.78668750       0.35620000       0.00000000       0.00000000      12.01100000       0.74942403      -0.01273877      -0.48693264       0.02098672       0.01703101       0.00000000
C       29.02168750       3.92220000       0.00000000       0.00000000      12.01100000      -0.39504037       0.02436195       0.08137498       0.02109825      -0.04609287       0.00000000
C       29.02168750       2.49520000       0.00000000       0.00000000      12.01100000       0.19765684      -0.19553726      -0.64982013       0.02104982       0.01615785       0.00000000
C       27.78668750       1.78220000       0.00000000       0.00000000      12.01100000       0.55139669       0.27302247       0.27555280       0.02093699       0.01291605       0.00000000
C       27.78668750       4.63420000       0.00000000       0.00000000      12.01100000       0.22604057      -0.20593425      -0.06475709       0.02099129       0.02352057       0.00000000
C       29.02168750       8.20020000       0.00000000       0.00000000      12.01100000       0.17015919      -1.24518751      -0.18559348       0.02111068      -0.02894034       0.00000000
C       29.02168750       6.77420000       0.00000000       0.00000000      12.01100000       1.02235623       0.20392116       0.49640150       0.02101412      -0.03191538       0.00000000
C       27.78668750       6.06020000       0.00000000       0.00000000      12.01100000       0.43465322       0.41815790      -0.09959110       0.02089199       0.03134904       0.00000000
C       27.78668750       8.91220000       0.00000000       0.00000000      12.01100000      -0.43562462       0.24103414       0.26867021       0.02099676       0.02690637       0.00000000
C       29.02168750      12.47720000       0.00000000       0.00000000      12.01100000       0.83233289      -0.25339747       0.18527422       0.02102489       0.01863778       0.00000000
C       29.02168750      11.05120000       0.00000000       0.00000000      12.01100000       1.04849829       0.33387090       0.51499401       0.02106483       0.00697836       0.00000000
C       27.78668750      10.33820000       0.00000000       0.00000000      12.01100000      -0.05905586       0.02819961       0.25051714       0.02094319       0.00271916       0.00000000
C       27.78668750      13.19120000       0.00000000       0.00000000      12.01100000       0.23549782       0.57510421      -1.05127306       0.02090513      -0.03998815       0.00000000
C       29.02168750      16.75520000       0.00000000       0.00000000      12.01100000      -0.41108539      -0.71581591      -0.24049485       0.02107277       0.01640240       0.00000000
C       29.02168750      15.33020000       0.00000000       0.00000000      12.01100000       0.11694488       0.01656300      -0.08057751       0.02103461      -0.04153670       0.00000000
C       27.78668750      14.61620000       0.00000000       0.00000000      12.01100000      -0.01301078      -0.31350868      -0.02249424       0.02091368       0.03499080       0.00000000
C       27.78668750      17.46820000       0.00000000       0.00000000      12.01100000      -0.94200022       1.02760734       0.35780077       0.02095585       0.00615006       0.00000000
C       29.02168750      21.03420000       0.00000000       0.00000000      12.01100000       0.43031378       0.52593170       0.76751615       0.02109806      -0.04611800       0.00000000
C       29.02168750      19.60720000       0.00000000       0.00000000      12.01100000       0.00502623       0.56693547       0.28097866       0.02105208       0.01730428       0.00000000
C       27.78668750      18.89420000       0.00000000       0.00000000      12.01100000       0.60946540      -1.95379411       0.41164596       0.02093787       0.00370078       0.00000000
C       30.25768750       0.35620000       0.00000000       0.00000000      12.01100000       0.76582019       0.12260951       1.10841803      -0.01655522       0.01396750       0.00000000
C       31.49268750       3.92220000       0.00000000       0.00000000      12.01100000       0.41645941      -0.18935479       0.85246742      -0.00400070      -0.04546697       0.00000000
C       31.49268750       2.49520000       0.00000000       0.00000000      12.01100000       0.33441010       1.36488477       0.75509393      -0.00399245       0.01550967       0.00000000
C       30.25768750       1.78220000       0.00000000       0.00000000      12.01100000      -0.18062990       0.83983778      -0.68212100      -0.01651700       0.01591790       0.00000000
C       30.25768750       4.63420000       0.00000000       0.00000000      12.01100000       0.41772375      -0.24534398       0.61883452      -0.01655585       0.02045033       0.00000000
C       31.49268750       8.20020000       0.00000000       0.00000000      12.01100000      -0.33091140      -0.02534944       0.55230787      -0.00400263      -0.02829963       0.00000000
C       31.49268750       6.77420000       0.00000000       0.00000000      12.01100000       0.46499987      -0.05621574      -0.38290449      -0.00398216      -0.03259631       0.00000000
C       30.25768750       6.06020000       0.00000000       0.00000000      12.01100000       0.19570883      -0.21892753      -1.19233728      -0.01649252       0.03431066       0.00000000
C       30.25768750       8.91220000       0.00000000       0.00000000      12.01100000       0.02215205       0.36744535       0.90358634      -0.01656385       0.02383408       0.00000000
C       31.49268750      12.47720000       0.00000000       0.00000000      12.01100000      -0.51588420      -0.35712799      -0.65655590      -0.00397847       0.01930901       0.00000000
C       31.49268750      11.05120000       0.00000000       0.00000000      12.01100000      -0.06510368      -0.37139379       0.51061314      -0.00399283       0.00632474       0.00000000
C       30.25768750      10.33820000       0.00000000       0.00000000      12.01100000       0.20089316      -0.05597718       0.80161668      -0.01653040       0.00572869       0.00000000
C       30.25768750      13.19120000       0.00000000       0.00000000      12.01100000       0.05513548      -0.56554769      -0.12475246      -0.01649994      -0.04292638       0.00000000
C       31.49268750      16.75520000       0.00000000       0.00000000      12.01100000       0.16202146       0.60999856       0.09850312      -0.00399179       0.01707800       0.00000000
C       31.49268750      15.33020000       0.00000000       0.00000000      12.01100000      -0.80875090      -0.31658734      -0.02955017      -0.00397710      -0.04222945       0.00000000
C       30.25768750      14.61620000       0.00000000       0.00000000      12.01100000      -0.61018440       0.32731598       0.07043460      -0.01651361       0.03793883       0.00000000
C       30.25768750      17.46820000       0.00000000       0.00000000      12.01100000      -0.20827929      -0.20207904      -0.24544909      -0.01654269       0.00311878       0.00000000
C       31.49268750      21.03420000       0.00000000       0.00000000      12.01100000      -0.34756839      -0.24293424       0.23539497      -0.00400364      -0.04549511       0.00000000
C       31.49268750      19.60720000       0.00000000       0.00000000      12.01100000       1.21333774       1.05854541      -0.18377727      -0.00399050       0.01665643       0.00000000
C       30.25768750      18.89420000       0.00000000       0.00000000      12.01100000      -0.27007634       0.09235259       0.75736059      -0.01651567       0.00671146       0.00000000
C       32.72768750       0.35620000       0.00000000       0.00000000      12.01100000      -0.97965289       0.06620686      -0.40446737      -0.00041744       0.01654773       0.00000000
C       33.96268750       3.92220000       0.00000000       0.00000000      12.01100000      -0.52136907      -0.85347050      -0.32905551      -0.00020764      -0.04650253       0.00000000
C       33.96268750       2.49520000       0.00000000       0.00000000      12.01100000      -0.00102247       0.18500998      -0.20505237      -0.00020667       0.01654140       0.00000000
C       32.72768750       1.78220000       0.00000000       0.00000000      12.01100000      -0.08651172       0.72792840       0.24195932      -0.00041736       0.01336882       0.00000000
C       32.72768750       4.63420000       0.00000000       0.00000000      12.01100000      -0.25767549       0.14198459       0.02612763      -0.00041704       0.02303067       0.00000000
C       33.96268750       8.20020000       0.00000000       0.00000000      12.01100000       0.03738774       0.44659352      -0.08859632      -0.00020802      -0.02933895       0.00000000
C       33.96268750       6.77420000       0.00000000       0.00000000      12.01100000      -0.52164956      -0.52920180       0.09174222      -0.00020579      -0.03156816       0.00000000
C       32.72768750       6.06020000       0.00000000       0.00000000      12.01100000      -0.11522690      -0.27298842      -0.17822159      -0.00041776       0.03178287       0.00000000
C       32.72768750       8.91220000       0.00000000       0.00000000      12.01100000      -0.01122377       0.30371846       0.44200754      -0.00041843       0.02641791       0.00000000
C       33.96268750      12.47720000       0.00000000       0.00000000      12.01100000      -0.13624785      -1.11787051      -0.24105854      -0.00020651       0.01828244       0.00000000
C       33.96268750      11.05120000       0.00000000       0.00000000      12.01100000      -0.81271523       0.09292390       0.10714966      -0.00020691       0.00735380       0.00000000
C       32.72768750      10.33820000       0.00000000       0.00000000      12.01100000      -0.68851296       0.84409929      -0.79583064      -0.00041657       0.00317683       0.00000000
C       32.72768750      13.19120000       0.00000000       0.00000000      12.01100000       0.29929090      -0.30437411       0.38100053      -0.00042031      -0.04041672       0.00000000
C       33.96268750      16.75520000       0.00000000       0.00000000      12.01100000       0.42141345       1.16718151      -0.07601976      -0.00020756       0.01604765       0.00000000
C       33.96268750      15.33020000       0.00000000       0.00000000      12.01100000       0.33022800      -0.18147346       0.09652274      -0.00020737      -0.04120176       0.00000000
C       32.72768750      14.61620000       0.00000000       0.00000000      12.01100000       1.04211350      -0.19232609       0.10066946      -0.00041910       0.03542383       0.00000000
C       32.72768750      17.46820000       0.00000000       0.00000000      12.01100000       0.36331950      -0.50439618       0.39526783      -0.00041639       0.00568137       0.00000000
C       33.96268750      21.03420000       0.00000000       0.00000000      12.01100000      -0.00560986       0.93611552       0.14052241      -0.00020726      -0.04652909       0.00000000
C       33.96268750      19.60720000       0.00000000       0.00000000      12.01100000      -0.24391143      -0.18884997       0.31862023      -0.00020659       0.01768639       0.00000000
C       32.72768750      18.89420000       0.00000000       0.00000000      12.01100000       0.40563977       0.02391734       0.23002941      -0.00041959       0.00416177       0.00000000
C       35.19768750       0.35620000       0.00000000       0.00000000      12.01100000       0.54842868       0.01881665      -1.30836733      -0.00014491       0.01603244       0.00000000
C       36.43268750       3.92220000       0.00000000       0.00000000      12.01100000       0.65996965      -0.01393091      -0.53319231      -0.00002162      -0.04656690       0.00000000
C       36.43268750       2.49520000       0.00000000       0.00000000      12.01100000      -0.05818950      -0.06871575      -0.37339020      -0.00002140       0.01660323       0.00000000
C       35.19768750       1.78220000       0.00000000       0.00000000      12.01100000      -0.62368291      -1.18582488       0.35765438      -0.00014254       0.01388585       0.00000000
C       35.19768750       4.63420000       0.00000000       0.00000000      12.01100000      -0.21650679       0.01541549       0.57893633      -0.00014411       0.02251791       0.00000000
C       36.43268750       8.20020000       0.00000000       0.00000000      12.01100000       0.78071075      -0.70746641      -1.19627158      -0.00002217      -0.02940006       0.00000000
C       36.43268750       6.77420000       0.00000000       0.00000000      12.01100000       0.41691303      -0.74614419      -0.38058787      -0.00002186      -0.03150912       0.00000000
C       35.19768750       6.06020000       0.00000000       0.00000000      12.01100000       0.79234538      -0.98571017       0.59406914      -0.00014271       0.03230011       0.00000000
C       35.19768750       8.91220000       0.00000000       0.00000000      12.01100000       0.15806186       0.73092997      -0.62664192      -0.00014414       0.02590176       0.00000000
C       36.43268750      12.47720000       0.00000000       0.00000000      12.01100000       0.01641984       0.01122854       0.66956378      -0.00002000       0.01822031       0.00000000
C       36.43268750      11.05120000       0.00000000       0.00000000      12.01100000      -0.85339451      -0.07372871      -0.27634588      -0.00002034       0.00741820       0.00000000
C       35.19768750      10.33820000       0.00000000       0.00000000      12.01100000      -0.67945243       0.24951019      -0.12674390      -0.00014525       0.00369336       0.00000000
C       35.19768750      13.19120000       0.00000000       0.00000000      12.01100000      -0.27079008      -0.88119195       0.11620438      -0.00014381      -0.04093071       0.00000000
C       36.43268750      16.75520000       0.00000000       0.00000000      12.01100000      -0.86025397       1.08110023      -0.16378896      -0.00002030       0.01598520       0.00000000
C       36.43268750      15.33020000       0.00000000       0.00000000      12.01100000       0.40477850      -0.19535931      -0.07820895      -0.00002158      -0.04114176       0.00000000
C       35.19768750      14.61620000       0.00000000       0.00000000      12.01100000      -0.41905561       0.76333476       0.49941224      -0.00014274       0.03593913       0.00000000
C       35.19768750      17.46820000       0.00000000       0.00000000      12.01100000      -0.20915023       0.15436996      -0.33655394      -0.00014521       0.00516400       0.00000000
C       36.43268750      21.03420000       0.00000000       0.00000000      12.01100000       0.08505416      -1.08366627      -0.78805405      -0.00002129      -0.04659363       0.00000000
C       36.43268750      19.60720000       0.00000000       0.00000000      12.01100000       0.18994960       0.02288030      -0.10824792      -0.00001957       0.01775121       0.00000000
C       35.19768750      18.89420000       0.00000000       0.00000000      12.01100000      -0.39596520      -0.09085262       0.83574747      -0.00014591       0.00467671       0.00000000
C       37.66768750       0.35620000       0.00000000       0.00000000      12.01100000      -0.62076338       0.04354586      -0.44546956      -0.00000707       0.01600899       0.00000000
C       38.90268750       3.92220000       0.00000000       0.00000000      12.01100000      -0.42056783       0.30245235       0.22944622      -0.00015022      -0.04663232       0.00000000
C       38.90268750       2.49520000       0.00000000       0.00000000      12.01100000      -0.31532206       0.18412590      -0.04140805      -0.00014949       0.01667004       0.00000000
C       37.66768750       1.78220000       0.00000000       0.00000000      12.01100000      -0.78250639       1.03956288      -1.13331194      -0.00000747       0.01391031       0.00000000
C       37.66768750       4.63420000       0.00000000       0.00000000      12.01100000       0.73430751      -1.06907904      -0.99232924      -0.00000651       0.02249354       0.00000000
C       38.90268750       8.20020000       0.00000000       0.00000000      12.01100000       0.60205742      -1.93557124      -0.64911072      -0.00014997      -0.02946722       0.00000000
C       38.90268750       6.77420000       0.00000000       0.00000000      12.01100000       0.50595511       0.12420984      -0.03661679      -0.00014701      -0.03144339       0.00000000
C       37.66768750       6.06020000       0.00000000       0.00000000      12.01100000      -0.35059754      -0.64492723       0.38224774      -0.00000746       0.03232277       0.00000000
C       37.66768750       8.91220000       0.00000000       0.00000000      12.01100000       0.17293545      -0.48934859      -0.09630913      -0.00000824       0.02587912       0.00000000
C       38.90268750      12.47720000       0.00000000       0.00000000      12.01100000      -0.14659665       0.07019443      -0.02407745      -0.00014897       0.01815794       0.00000000
C       38.90268750      11.05120000       0.00000000       0.00000000      12.01100000      -0.53225147      -0.56521468       0.14885516      -0.00015073       0.00748244       0.00000000
C       37.66768750      10.33820000       0.00000000       0.00000000      12.01100000       1.16106628      -0.01678396       0.19580609      -0.00000721       0.00371726       0.00000000
C       37.66768750      13.19120000       0.00000000       0.00000000      12.01100000       0.02173941       1.06240743      -0.73882648      -0.00000635      -0.04095431       0.00000000
C       38.90268750      16.75520000       0.00000000       0.00000000      12.01100000       0.19431415       0.70039777      -0.30347532      -0.00015038       0.01592270       0.00000000
C       38.90268750      15.33020000       0.00000000       0.00000000      12.01100000      -0.59274776      -0.90044723      -0.77554062      -0.00014785      -0.04107857       0.00000000
C       37.66768750      14.61620000       0.00000000       0.00000000      12.01100000      -0.48192432       0.37289537      -0.46361421      -0.00000888       0.03596020       0.00000000
C       37.66768750      17.46820000       0.00000000       0.00000000      12.01100000      -0.25517246       1.06118225       0.37463517      -0.00000731       0.00514162       0.00000000
C       38.90268750      21.03420000       0.00000000       0.00000000      12.01100000       0.04448798      -0.69298018      -0.39543430      -0.00014950      -0.04666043       0.00000000
C       38.90268750      19.60720000       0.00000000       0.00000000      12.01100000       0.37654794       0.27131176       0.01302456      -0.00014954       0.01781532       0.00000000
C       37.66768750      18.89420000       0.00000000       0.00000000      12.01100000       0.61492940      -0.61591429       0.21077301      -0.00000542       0.00469956       0.00000000
C        0.61768750       0.35620000       0.00000000       0.00000000      12.01100000       0.35576227      -0.86092640       0.16648215      -0.00031150       0.01542003       0.00000000
C        1.85268750       3.92220000       0.00000000       0.00000000      12.01100000      -0.02726918       0.25615847      -0.61116847      -0.00380768      -0.04825051       0.00000000
C        1.85268750       2.49520000       0.00000000       0.00000000      12.01100000       1.01328904      -0.11431780       0.40996133      -0.00379284       0.01828544       0.00000000
C        0.61768750       1.78220000       0.00000000       0.00000000      12.01100000      -0.30428063       0.49260722      -0.46962645      -0.00031198       0.01449753       0.00000000
C        0.61768750       4.63420000       0.00000000       0.00000000      12.01100000       0.03482173       1.10628669       0.70296905      -0.00030892       0.02190463       0.00000000
C        1.85268750       8.20020000       0.00000000       0.00000000      12.01100000      -1.10664622       0.11795135       0.11935641      -0.00380100      -0.03108259       0.00000000
C        1.85268750       6.77420000       0.00000000       0.00000000      12.01100000       0.06843716      -0.08956549       0.83566516      -0.00377894      -0.02983751       0.00000000
C        0.61768750       6.06020000       0.00000000       0.00000000      12.01100000       0.30987399      -0.73229808      -0.54124383      -0.00031338       0.03291334       0.00000000
C        0.61768750       8.91220000       0.00000000       0.00000000      12.01100000      -1.06519760       0.30153563      -1.09663769      -0.00031255       0.02528826       0.00000000
C        1.85268750      12.47720000       0.00000000       0.00000000      12.01100000      -0.06753239       0.15404353      -0.42349229      -0.00378027       0.01655110       0.00000000
C        1.85268750      11.05120000       0.00000000       0.00000000      12.01100000       0.57277945       0.28215176       0.72732033      -0.00379098       0.00909164       0.00000000
C        0.61768750      10.33820000       0.00000000       0.00000000      12.01100000       0.62132416      -0.77274559      -0.22136617      -0.00031167       0.00430794       0.00000000
C        0.61768750      13.19120000       0.00000000       0.00000000      12.01100000      -0.19788630       0.08851366      -1.61695000      -0.00031471      -0.04154007       0.00000000
C        1.85268750      16.75520000       0.00000000       0.00000000      12.01100000      -0.40144263      -0.65266780       0.47319908      -0.00379229       0.01431252       0.00000000
C        1.85268750      15.33020000       0.00000000       0.00000000      12.01100000      -0.11053607       0.09075545      -0.06463456      -0.00377667      -0.03947578       0.00000000
C        0.61768750      14.61620000       0.00000000       0.00000000      12.01100000       0.41606147      -0.83127649       0.24405748      -0.00031384       0.03654685       0.00000000
C        0.61768750      17.46820000       0.00000000       0.00000000      12.01100000       0.13497180      -0.12649576       0.16780569      -0.00031024       0.00455156       0.00000000
C        1.85268750      21.03420000       0.00000000       0.00000000      12.01100000      -0.23833259      -0.19182414      -0.42997915      -0.00380435      -0.04827547       0.00000000
C        1.85268750      19.60720000       0.00000000       0.00000000      12.01100000       0.75548325       0.21782415      -0.17112976      -0.00379538       0.01943070       0.00000000
C        0.61768750      18.89420000       0.00000000       0.00000000      12.01100000      -0.84898388      -0.06654464       0.44909238      -0.00031349       0.00528978       0.00000000
C        3.08768750       0.35620000       0.00000000       0.00000000      12.01100000      -0.58427049      -0.21025805      -0.07909298      -0.01306801       0.01647957       0.00000000
C        4.32168750       3.92220000       0.00000000       0.00000000      12.01100000      -1.04900180      -0.97664146      -0.65655983       0.03368412      -0.04603837       0.00000000
C        4.32168750       2.49520000       0.00000000       0.00000000      12.01100000      -0.23312715      -0.80182643       0.35020901       0.03359962       0.01607583       0.00000000
C        3.08768750       1.78220000       0.00000000       0.00000000      12.01100000      -0.04691255      -0.67240096      -0.70414517      -0.01304085       0.01346527       0.00000000
C        3.08768750       4.63420000       0.00000000       0.00000000      12.01100000       0.25799765       0.14411867      -0.15267792      -0.01306733       0.02296922       0.00000000
C        4.32168750       8.20020000       0.00000000       0.00000000      12.01100000       1.14814231       0.03824036       0.91383478       0.03370785      -0.02887728       0.00000000
C        4.32168750       6.77420000       0.00000000       0.00000000      12.01100000       0.42905440       0.43679622      -0.02088261       0.03354465      -0.03203852       0.00000000
C        3.08768750       6.06020000       0.00000000       0.00000000      12.01100000       0.36093365      -0.02503473      -0.25440421      -0.01302427       0.03190060       0.00000000
C        3.08768750       8.91220000       0.00000000       0.00000000      12.01100000      -0.08852535       0.00859866      -0.65805788      -0.01308629       0.02635514       0.00000000
C        4.32168750      12.47720000       0.00000000       0.00000000      12.01100000       0.30126870       0.38332682      -0.20296112       0.03357822       0.01874902       0.00000000
C        4.32168750      11.05120000       0.00000000       0.00000000      12.01100000      -0.62769234       0.59825389      -0.12342541       0.03362267       0.00688880       0.00000000
C        3.08768750      10.33820000       0.00000000       0.00000000      12.01100000       0.55868733       0.12253101       0.38848987      -0.01305557       0.00327293       0.00000000
C        3.08768750      13.19120000       0.00000000       0.00000000      12.01100000      -0.17113562      -0.49066482      -0.09837438      -0.01303494      -0.04053807       0.00000000
C        4.32168750      16.75520000       0.00000000       0.00000000      12.01100000       0.54790327       0.04032066      -0.19146567       0.03364357       0.01651094       0.00000000
C        4.32168750      15.33020000       0.00000000       0.00000000      12.01100000       0.40095879       0.43383809      -0.28548386       0.03359263      -0.04167199       0.00000000
C        3.08768750      14.61620000       0.00000000       0.00000000      12.01100000       0.75377204       0.54203047       0.83425612      -0.01304959       0.03554181       0.00000000
C        3.08768750      17.46820000       0.00000000       0.00000000      12.01100000       0.15031088       0.52425745      -0.86216835      -0.01306834       0.00560132       0.00000000
C        4.32168750      21.03420000       0.00000000       0.00000000      12.01100000       1.15771936      -0.92410316      -1.02673064       0.03368319      -0.04606387       0.00000000
C        4.32168750      19.60720000       0.00000000       0.00000000      12.01100000      -0.45000961       0.05887791       0.50884806       0.03360573       0.01722166       0.00000000
C        3.08768750      18.89420000       0.00000000       0.00000000      12.01100000       0.32130062      -0.87277589       0.18197188      -0.01303751       0.00425195       0.00000000
C        5.55768750       0.35620000       0.00000000       0.00000000      12.01100000      -0.68409317       0.21842531       0.70115251      -0.01680346       0.01674669       0.00000000
C        6.79268750       3.92220000       0.00000000       0.00000000      12.01100000      -0.36591862      -0.73075110       0.69135960      -0.02029017      -0.04698876       0.00000000
C        6.79268750       2.49520000       0.00000000       0.00000000      12.01100000      -1.34561303       0.48311556       0.13294173      -0.02023123       0.01700016       0.00000000
C        5.55768750       1.78220000       0.00000000       0.00000000      12.01100000       0.01493591      -0.23101294       0.60442030      -0.01676465       0.01314917       0.00000000
C        5.55768750       4.63420000       0.00000000       0.00000000      12.01100000      -0.02086347      -0.32865235       1.36116975      -0.01680166       0.02322094       0.00000000
C        6.79268750       8.20020000       0.00000000       0.00000000      12.01100000      -0.82807415       0.35116363       0.35654492      -0.02029822      -0.02980984       0.00000000
C        6.79268750       6.77420000       0.00000000       0.00000000      12.01100000      -0.21126949       0.44759447       0.09352333      -0.02018851      -0.03115718       0.00000000
C        5.55768750       6.06020000       0.00000000       0.00000000      12.01100000       0.02400852      -0.58484335      -0.13572407      -0.01673942       0.03155976       0.00000000
C        5.55768750       8.91220000       0.00000000       0.00000000      12.01100000       0.53950943       0.02066452      -0.12676488      -0.01681241       0.02660295       0.00000000
C        6.79268750      12.47720000       0.00000000       0.00000000      12.01100000      -0.47818137       0.13387559      -0.42051392      -0.02020582       0.01785734       0.00000000
C        6.79268750      11.05120000       0.00000000       0.00000000      12.01100000      -0.04634779       0.05009277      -0.86097805      -0.02024125       0.00780332       0.00000000
C        5.55768750      10.33820000       0.00000000       0.00000000      12.01100000       0.56135128      -0.56250640      -0.14934165      -0.01677669       0.00296911       0.00000000
C        5.55768750      13.19120000       0.00000000       0.00000000      12.01100000      -0.49954655       0.52071530       0.46954974      -0.01675138      -0.04018722       0.00000000
C        6.79268750      16.75520000       0.00000000       0.00000000      12.01100000      -0.41709529      -0.47779972       0.64258761      -0.02024694       0.01561814       0.00000000
C        6.79268750      15.33020000       0.00000000       0.00000000      12.01100000       0.31655506      -0.32947176      -0.09973953      -0.02021012      -0.04079823       0.00000000
C        5.55768750      14.61620000       0.00000000       0.00000000      12.01100000       0.44861689      -0.45767349      -0.33159201      -0.01676076       0.03520140       0.00000000
C        5.55768750      17.46820000       0.00000000       0.00000000      12.01100000       0.56763450       0.31653657      -0.20129034      -0.01678904       0.00587586       0.00000000
C        6.79268750      21.03420000       0.00000000       0.00000000      12.01100000       0.37605319      -0.70176111       0.28735530      -0.02028802      -0.04701573       0.00000000
C        6.79268750      19.60720000       0.00000000       0.00000000      12.01100000      -0.22711881      -0.12990113       0.62015823      -0.02023701       0.01814542       0.00000000
C        5.55768750      18.89420000       0.00000000       0.00000000      12.01100000       0.52455936       0.39886386      -0.37013594      -0.01676261       0.00395367       0.00000000
C        8.02668750       0.35620000       0.00000000       0.00000000      12.01100000       0.69946402      -0.55579823       0.26482993       0.02101514       0.01702917       0.00000000
C        9.26168750       3.92220000       0.00000000       0.00000000      12.01100000      -0.57907970      -0.66480257       0.34945785       0.02108497      -0.04609436       0.00000000
C        9.26168750       2.49520000       0.00000000       0.00000000      12.01100000       0.14464199       0.01643696      -0.37646245       0.02103573       0.01615765       0.00000000
C        8.02668750       1.78220000       0.00000000       0.00000000      12.01100000       0.28725279       0.00919437      -0.07375411       0.02096513       0.01291834       0.00000000
C        8.02668750       4.63420000       0.00000000       0.00000000      12.01100000       0.41284205       0.24156187      -0.78353282       0.02101815       0.02351956       0.00000000
C        9.26168750       8.20020000       0.00000000       0.00000000      12.01100000       0.07974323      -1.06817159      -0.40514681       0.02109853      -0.02894109       0.00000000
C        9.26168750       6.77420000       0.00000000       0.00000000      12.01100000       0.85150154       0.47081262       0.37083261       0.02100113      -0.03191518       0.00000000
C        8.02668750       6.06020000       0.00000000       0.00000000      12.01100000       0.28175881       0.76474218      -0.31120841       0.02092073       0.03135059       0.00000000
C        8.02668750       8.91220000       0.00000000       0.00000000      12.01100000       0.03348449       0.38347642      -0.22668136       0.02102403       0.02690482       0.00000000
C        9.26168750      12.47720000       0.00000000       0.00000000      12.01100000      -0.41385374       0.44598428      -0.25409237       0.02101028       0.01863872       0.00000000
C        9.26168750      11.05120000       0.00000000       0.00000000      12.01100000      -0.38494040      -0.61244394       0.65502569       0.02105109       0.00697796       0.00000000
C        8.02668750      10.33820000       0.00000000       0.00000000      12.01100000      -0.29975159      -0.27355992      -0.47673820       0.02097040       0.00272132       0.00000000
C        8.02668750      13.19120000       0.00000000       0.00000000      12.01100000       0.21704878      -0.55467734       0.19035683       0.02093313      -0.03998933       0.00000000
C        9.26168750      16.75520000       0.00000000       0.00000000      12.01100000       0.56501141       0.52652013      -0.26551040       0.02105845       0.01640236       0.00000000
C        9.26168750      15.33020000       0.00000000       0.00000000      12.01100000      -0.32286761       0.44437800       0.35453245       0.02102092      -0.04153691       0.00000000
C        8.02668750      14.61620000       0.00000000       0.00000000      12.01100000       0.63749115       0.60925987      -1.05880554       0.02094114       0.03499113       0.00000000
C        8.02668750      17.46820000       0.00000000       0.00000000      12.01100000      -0.05991472      -0.43179935       0.15114686       0.02098168       0.00614766       0.00000000
C        9.26168750      21.03420000       0.00000000       0.00000000      12.01100000       0.60304087      -1.03865515      -0.15417440       0.02108540      -0.04611941       0.00000000
C        9.26168750      19.60720000       0.00000000       0.00000000      12.01100000      -0.37311056      -0.77554101       0.52798316       0.02103919       0.01730494       0.00000000
C        8.02668750      18.89420000       0.00000000       0.00000000      12.01100000      -0.33722179       0.84042684       0.11683210       0.02096435       0.00370288       0.00000000
C       10.49768750       0.35620000       0.00000000       0.00000000      12.01100000       1.32660762       0.16961096      -0.47004036      -0.01656480       0.01396582       0.00000000
C       11.73268750       3.92220000       0.00000000       0.00000000      12.01100000      -0.37657517       0.16558492      -0.33967899      -0.00402142      -0.04547159       0.00000000
C       11.73268750       2.49520000       0.00000000       0.00000000      12.01100000      -0.70476199       0.06519353       0.64650110      -0.00401187       0.01551211       0.00000000
C       10.49768750       1.78220000       0.00000000       0.00000000      12.01100000      -0.17810168       0.34583770      -0.48895449      -0.01652545       0.01592105       0.00000000
C       10.49768750       4.63420000       0.00000000       0.00000000      12.01100000       0.00846912      -0.50892074       0.74110099      -0.01656405       0.02044928       0.00000000
C       11.73268750       8.20020000       0.00000000       0.00000000      12.01100000      -0.56731351       0.22919740      -0.25525206      -0.00402235      -0.02830296       0.00000000
C       11.73268750       6.77420000       0.00000000       0.00000000      12.01100000       0.69557830      -0.10009988       0.66184001      -0.00400155      -0.03259428       0.00000000
C       10.49768750       6.06020000       0.00000000       0.00000000      12.01100000      -1.49238091      -0.68923521       0.82065733      -0.01650224       0.03431267       0.00000000
C       10.49768750       8.91220000       0.00000000       0.00000000      12.01100000      -0.15663661      -0.50065469      -0.02190499      -0.01657346       0.02383232       0.00000000
C       11.73268750      12.47720000       0.00000000       0.00000000      12.01100000       0.35518137       0.27140493       0.05500454      -0.00399907       0.01930466       0.00000000
C       11.73268750      11.05120000       0.00000000       0.00000000      12.01100000       1.06743602       0.33591433       1.19745308      -0.00401300       0.00632942       0.00000000
C       10.49768750      10.33820000       0.00000000       0.00000000      12.01100000      -0.50398989       0.63092806       0.72337825      -0.01653844       0.00572918       0.00000000
C       10.49768750      13.19120000       0.00000000       0.00000000      12.01100000       0.54663312       0.21992901       0.88965445      -0.01650880      -0.04292645       0.00000000
C       11.73268750      16.75520000       0.00000000       0.00000000      12.01100000      -0.34259859       0.28798979       0.19339656      -0.00401252       0.01707559       0.00000000
C       11.73268750      15.33020000       0.00000000       0.00000000      12.01100000      -0.70745838       0.35761652      -0.33146312      -0.00399608      -0.04222695       0.00000000
C       10.49768750      14.61620000       0.00000000       0.00000000      12.01100000       1.64312224       0.20405565      -0.90672446      -0.01652178       0.03793999       0.00000000
C       10.49768750      17.46820000       0.00000000       0.00000000      12.01100000      -0.13714275      -0.55439310      -0.03629635      -0.01655046       0.00311881       0.00000000
C       11.73268750      21.03420000       0.00000000       0.00000000      12.01100000      -0.61956279      -0.40409513       0.27842394      -0.00402125      -0.04549686       0.00000000
C       11.73268750      19.60720000       0.00000000       0.00000000      12.01100000       0.88067194      -0.64532667      -0.70923660      -0.00401181       0.01665942       0.00000000
C       10.49768750      18.89420000       0.00000000       0.00000000      12.01100000       0.84358179       0.28011883      -0.15490842      -0.01652382       0.00671169       0.00000000
C       12.96768750       0.35620000       0.00000000       0.00000000      12.01100000      -0.77174510      -0.24348396      -0.77315514      -0.00041631       0.01655429       0.00000000
C       14.20268750       3.92220000       0.00000000       0.00000000      12.01100000      -1.18558214      -1.03624520      -0.34065562      -0.00017599      -0.04650432       0.00000000
C       14.20268750       2.49520000       0.00000000       0.00000000      12.01100000      -0.72764030      -0.19874820      -0.81493583      -0.00017571       0.01653933       0.00000000
C       12.96768750       1.78220000       0.00000000       0.00000000      12.01100000       1.21221469      -1.26411046      -0.31736727      -0.00041588       0.01336645       0.00000000
C       12.96768750       4.63420000       0.00000000       0.00000000      12.01100000       0.37257157      -0.74395993       0.41328766      -0.00041649       0.02303757       0.00000000
C       14.20268750       8.20020000       0.00000000       0.00000000      12.01100000      -0.14956374      -0.08747996      -0.80412358      -0.00017740      -0.02933647       0.00000000
C       14.20268750       6.77420000       0.00000000       0.00000000      12.01100000       0.10292399       0.19288699      -0.80943670      -0.00017488      -0.03157045       0.00000000
C       12.96768750       6.06020000       0.00000000       0.00000000      12.01100000      -0.03262634       1.04959932      -0.28406049      -0.00041658       0.03178054       0.00000000
C       12.96768750       8.91220000       0.00000000       0.00000000      12.01100000       0.38228605      -0.48696047       0.14158860      -0.00041638       0.02642086       0.00000000
C       14.20268750      12.47720000       0.00000000       0.00000000      12.01100000      -0.01485811      -0.40131118       0.33344209      -0.00017482       0.01828227       0.00000000
C       14.20268750      11.05120000       0.00000000       0.00000000      12.01100000      -0.93057256      -0.05224622      -0.88778862      -0.00017469       0.00735397       0.00000000
C       12.96768750      10.33820000       0.00000000       0.00000000      12.01100000       0.29412052       0.25683871       1.16907449      -0.00041585       0.00317100       0.00000000
C       12.96768750      13.19120000       0.00000000       0.00000000      12.01100000      -0.75125231      -0.54740585       0.49168165      -0.00041877      -0.04041323       0.00000000
C       14.20268750      16.75520000       0.00000000       0.00000000      12.01100000      -0.58645524      -0.51971779      -1.45638190      -0.00017601       0.01604812       0.00000000
C       14.20268750      15.33020000       0.00000000       0.00000000      12.01100000       0.05314106      -0.72942195       0.99026182      -0.00017628      -0.04120136       0.00000000
C       12.96768750      14.61620000       0.00000000       0.00000000      12.01100000      -0.41594611      -0.88445829       0.12993956      -0.00041962       0.03542108       0.00000000
C       12.96768750      17.46820000       0.00000000       0.00000000      12.01100000      -0.07376047      -0.56311722      -0.25104741      -0.00041459       0.00568245       0.00000000
C       14.20268750      21.03420000       0.00000000       0.00000000      12.01100000       0.13901921      -0.93898645       0.22592801      -0.00017758      -0.04652782       0.00000000
C       14.20268750      19.60720000       0.00000000       0.00000000      12.01100000       0.31794181       1.17821235      -0.77010714      -0.00017317       0.01768594       0.00000000
C       12.96768750      18.89420000       0.00000000       0.00000000      12.01100000       0.16245913      -0.37005856       0.28620982      -0.00041915       0.00415739       0.00000000
C       15.43768750       0.35620000       0.00000000       0.00000000      12.01100000       0.25186377       0.89624654       0.07611968      -0.00009180       0.01602759       0.00000000
C       16.67268750       3.92220000       0.00000000       0.00000000      12.01100000       1.03368578      -0.03842927       0.64006610      -0.00007671      -0.04656621       0.00000000
C       16.67268750       2.49520000       0.00000000       0.00000000      12.01100000       0.86529444       1.15202312       0.03719816      -0.00007706       0.01660066       0.00000000
C       15.43768750       1.78220000       0.00000000       0.00000000      12.01100000       1.00068539      -0.57213838       0.41538581      -0.00008972       0.01389278       0.00000000
C       15.43768750       4.63420000       0.00000000       0.00000000      12.01100000       0.59353423       0.55682613      -0.00394546      -0.00009199       0.02251310       0.00000000
C       16.67268750       8.20020000       0.00000000       0.00000000      12.01100000      -0.27124196       0.02541521      -0.08508366      -0.00007836      -0.02939799       0.00000000
C       16.67268750       6.77420000       0.00000000       0.00000000      12.01100000      -0.44600752       0.78222835       0.97454636      -0.00007734      -0.03151108       0.00000000
C       15.43768750       6.06020000       0.00000000       0.00000000      12.01100000      -0.34373225      -0.35818967       1.15152827      -0.00008980       0.03230611       0.00000000
C       15.43768750       8.91220000       0.00000000       0.00000000      12.01100000      -0.68684168      -0.52808088      -0.22161277      -0.00009111       0.02589542       0.00000000
C       16.67268750      12.47720000       0.00000000       0.00000000      12.01100000       0.16572879       0.22557535      -0.36027666      -0.00007593       0.01822358       0.00000000
C       16.67268750      11.05120000       0.00000000       0.00000000      12.01100000       0.13292478       0.06317432       0.83310288      -0.00007670       0.00741508       0.00000000
C       15.43768750      10.33820000       0.00000000       0.00000000      12.01100000       0.33271554      -1.08976374      -1.12461585      -0.00009106       0.00369886       0.00000000
C       15.43768750      13.19120000       0.00000000       0.00000000      12.01100000       0.15808632       0.23069804       0.61634793      -0.00009024      -0.04093498       0.00000000
C       16.67268750      16.75520000       0.00000000       0.00000000      12.01100000      -0.46744317       0.18775672      -0.33900455      -0.00007568       0.01598841       0.00000000
C       16.67268750      15.33020000       0.00000000       0.00000000      12.01100000      -0.02134448      -0.76230657      -0.14504977      -0.00007594      -0.04114479       0.00000000
C       15.43768750      14.61620000       0.00000000       0.00000000      12.01100000       1.07256991      -0.60043330      -0.24372059      -0.00008977       0.03594220       0.00000000
C       15.43768750      17.46820000       0.00000000       0.00000000      12.01100000      -0.18086662      -0.06502450       0.70739704      -0.00009181       0.00515817       0.00000000
C       16.67268750      21.03420000       0.00000000       0.00000000      12.01100000      -0.66699990       0.63608029       0.77871224      -0.00007820      -0.04658970       0.00000000
C       16.67268750      19.60720000       0.00000000       0.00000000      12.01100000       0.03778243       0.16250557      -0.34798801      -0.00007688       0.01774725       0.00000000
C       15.43768750      18.89420000       0.00000000       0.00000000      12.01100000      -1.14755777      -0.04353149       0.39683469      -0.00009193       0.00468356       0.00000000
C       17.90768750       0.35620000       0.00000000       0.00000000      12.01100000       0.39353832       0.68509300       0.03086273      -0.00005310       0.01601030       0.00000000
C       19.14268750       3.92220000       0.00000000       0.00000000      12.01100000      -0.31515453       0.97639419      -0.36972247      -0.00012052      -0.04663502       0.00000000
C       19.14268750       2.49520000       0.00000000       0.00000000      12.01100000       0.24030002       0.90396539      -0.96173953      -0.00011851       0.01667156       0.00000000
C       17.90768750       1.78220000       0.00000000       0.00000000      12.01100000      -1.55483761      -0.08297872      -0.19467594      -0.00005021       0.01391010       0.00000000
C       17.90768750       4.63420000       0.00000000       0.00000000      12.01100000      -0.36129112       0.21635555       0.79858375      -0.00004965       0.02249447       0.00000000
C       19.14268750       8.20020000       0.00000000       0.00000000      12.01100000      -0.06997405      -0.18576988       0.04281337      -0.00011983      -0.02946905       0.00000000
C       19.14268750       6.77420000       0.00000000       0.00000000      12.01100000      -0.12773128      -0.21517067       0.30983022      -0.00011790      -0.03144111       0.00000000
C       17.90768750       6.06020000       0.00000000       0.00000000      12.01100000      -1.39841629       0.15421219      -0.50212186      -0.00005050       0.03232452       0.00000000
C       17.90768750       8.91220000       0.00000000       0.00000000      12.01100000      -0.59478088       0.59710289      -0.15160438      -0.00005074       0.02587849       0.00000000
C       19.14268750      12.47720000       0.00000000       0.00000000      12.01100000       0.32518273       0.92500997      -0.18632593      -0.00011694       0.01815360       0.00000000
C       19.14268750      11.05120000       0.00000000       0.00000000      12.01100000       0.63074022      -0.01812766      -0.16261689      -0.00012029       0.00748534       0.00000000
C       17.90768750      10.33820000       0.00000000       0.00000000      12.01100000      -0.53894619       0.57967615      -0.44732560      -0.00005093       0.00371728       0.00000000
C       17.90768750      13.19120000       0.00000000       0.00000000      12.01100000       0.45861787       0.02057805       0.31312783      -0.00005229      -0.04095492       0.00000000
C       19.14268750      16.75520000       0.00000000       0.00000000      12.01100000       0.44348827       0.18153107      -0.48988333      -0.00011819       0.01591881       0.00000000
C       19.14268750      15.33020000       0.00000000       0.00000000      12.01100000      -0.88842435      -0.29595497       0.14593264      -0.00011813      -0.04107633       0.00000000
C       17.90768750      14.61620000       0.00000000       0.00000000      12.01100000       0.44298275       0.13689958      -0.19549722      -0.00005166       0.03596190       0.00000000
C       17.90768750      17.46820000       0.00000000       0.00000000      12.01100000      -0.74102652       0.41758952       0.34613115      -0.00005295       0.00513922       0.00000000
C       19.14268750      21.03420000       0.00000000       0.00000000      12.01100000      -0.14083474       0.20865209       0.92828081      -0.00011715      -0.04666290       0.00000000
C       19.14268750      19.60720000       0.00000000       0.00000000      12.01100000      -0.53418663      -0.08226280      -1.18960373      -0.00011718       0.01781974       0.00000000
C       17.90768750      18.89420000       0.00000000       0.00000000      12.01100000      -0.26186603       0.61334186      -0.12697210      -0.00005118       0.00470085       0.00000000
C       21.99645192      21.98221646      17.69944187       0.00000000      12.01100000       0.00000000       0.00000000      -0.24455611       0.01820332       0.04371922       0.00577128
C       22.90399669      21.54827654      16.64986629       0.00000000      12.01100000       0.00000000       0.00000000      -0.24455611       0.03238416       0.04142800      -0.00234050
C       21.10589538      21.06939158      18.27420280       0.00000000      12.01100000       0.00000000       0.00000000      -0.24455611      -0.02381867      -0.01186006       0.04334736
C       22.88696124      20.21895918      16.21578749       0.00000000      12.01100000       0.00000000       0.00000000      -0.24455611       0.03570938      -0.03786731      -0.02154636
C       22.98662780      19.91538774      14.79579094       0.00000000      12.01100000       0.00000000       0.00000000      -0.24455611       0.03766668      -0.00430773       0.04631466
C       23.02047363      22.62772407      15.68094265       0.00000000      12.01100000       0.00000000       0.00000000      -0.24455611       0.01820600       0.01522744       0.05141219
C       23.11581715      22.33663614      14.31650328       0.00000000      12.01100000       0.00000000       0.00000000      -0.24455611       0.02959871      -0.00337875      -0.03983349
C       23.09809915      20.95383203      13.86500069       0.00000000      12.01100000       0.00000000       0.00000000      -0.24455611       0.04983509       0.02841794      -0.00292389
C       19.30663147      22.76433888      18.24705683       0.00000000      12.01100000       0.00000000       0.00000000      -0.24455611      -0.00535210       0.04587560       0.00936818
C       20.23278171      23.71305026      17.64825201       0.00000000      12.01100000       0.00000000       0.00000000      -0.24455611      -0.03396398       0.02499741       0.02488554
C       19.73505036      21.46852979      18.55315383       0.00000000      12.01100000       0.00000000       0.00000000      -0.24455611       0.00566436      -0.04078948       0.03436661
C       21.55089061      23.33044369      17.37972474       0.00000000      12.01100000       0.00000000       0.00000000      -0.24455611       0.05209459      -0.01821470       0.01255536
C       22.18425971      23.72892507      16.13232325       0.00000000      12.01100000       0.00000000       0.00000000      -0.24455611       0.04193932      -0.01547480       0.03775088
C       19.49588004      24.51043127      16.68046594       0.00000000      12.01100000       0.00000000       0.00000000      -0.24455611      -0.01981904       0.01163065       0.03724712
C       20.10575307      24.89237029      15.48104359       0.00000000      12.01100000       0.00000000       0.00000000      -0.24455611      -0.01630266       0.04911494      -0.03571397
C       21.47562998      24.49501244      15.20136260       0.00000000      12.01100000       0.00000000       0.00000000      -0.24455611      -0.00059962       0.04845607      -0.01761651
C       17.61175278      20.53539847      17.70171197       0.00000000      12.01100000       0.00000000       0.00000000      -0.24455611      -0.05637753      -0.01544321      -0.02396071
C       17.16709588      21.88361483      17.38111759       0.00000000      12.01100000       0.00000000       0.00000000      -0.24455611      -0.02764761      -0.05544800       0.03077531
C       18.87035078      20.33194454      18.27570490       0.00000000      12.01100000       0.00000000       0.00000000      -0.24455611       0.04632914      -0.01779816       0.03495300
C       17.99732846      22.97644426      17.64918347       0.00000000      12.01100000       0.00000000       0.00000000      -0.24455611       0.02261436       0.02582863       0.04307818
C       18.11394235      24.05505392      16.68137424       0.00000000      12.01100000       0.00000000       0.00000000      -0.24455611       0.03200513       0.03654420       0.03753896
C       16.42190276      21.82619964      16.13495990       0.00000000      12.01100000       0.00000000       0.00000000      -0.24455611      -0.04933822      -0.02814651       0.00365297
C       16.53335131      22.86458602      15.20413880       0.00000000      12.01100000       0.00000000       0.00000000      -0.24455611      -0.03776681       0.00408866      -0.04543009
C       17.39586995      24.00007657      15.48270874       0.00000000      12.01100000       0.00000000       0.00000000      -0.24455611      -0.01484174       0.04225874      -0.05596280
C       19.25319387      18.37586196      16.81619462       0.00000000      12.01100000       0.00000000       0.00000000      -0.24455611      -0.01206486      -0.06337112      -0.03594863
C       17.94411698      18.58669745      16.21808828       0.00000000      12.01100000       0.00000000       0.00000000      -0.24455611       0.00805748      -0.05260044      -0.01197368
C       19.70774115      19.22967738      17.82471685       0.00000000      12.01100000       0.00000000       0.00000000      -0.24455611       0.00156327       0.05603623       0.07393157
C       17.13940978      19.64424204      16.65131935       0.00000000      12.01100000       0.00000000       0.00000000      -0.24455611      -0.03882080       0.06977975       0.05666918
C       16.40420172      20.44342506      15.68342729       0.00000000      12.01100000       0.00000000       0.00000000      -0.24455611      -0.02932501       0.00316817       0.04187548
C       18.04430831      18.28496688      14.79862720       0.00000000      12.01100000       0.00000000       0.00000000      -0.24455611       0.00079262      -0.04773879       0.01844084
C       17.33572385      19.05099692      13.86760207       0.00000000      12.01100000       0.00000000       0.00000000      -0.24455611      -0.04183590       0.01532495      -0.03633495
C       16.49954768      20.15226229      14.31899955       0.00000000      12.01100000       0.00000000       0.00000000      -0.24455611      -0.01835501      -0.01709151      -0.05077364
C       21.96214323      19.27013246      16.81475099       0.00000000      12.01100000       0.00000000       0.00000000      -0.24455611       0.05221331      -0.03380752      -0.02968061
C       21.48999012      18.38054628      15.76559132       0.00000000      12.01100000       0.00000000       0.00000000      -0.24455611       0.05899817      -0.00869346      -0.02134484
C       21.08895192      19.68660723      17.82399099       0.00000000      12.01100000       0.00000000       0.00000000      -0.24455611      -0.03016019       0.00261682       0.05812979
C       20.16236359      17.94348680      15.76601940       0.00000000      12.01100000       0.00000000       0.00000000      -0.24455611      -0.05520546      -0.04759216      -0.01394206
C       19.41419004      17.88765446      14.51893538       0.00000000      12.01100000       0.00000000       0.00000000      -0.24455611       0.01729929      -0.04905200       0.03687596
C       22.12414013      18.77987272      14.51722298       0.00000000      12.01100000       0.00000000       0.00000000      -0.24455611       0.01452768      -0.04194415       0.05748415
C       21.40611312      18.72491557      13.31856219       0.00000000      12.01100000       0.00000000       0.00000000      -0.24455611      -0.03135538      -0.03663254      -0.03647894
C       20.02416911      18.26957089      13.31950841       0.00000000      12.01100000       0.00000000       0.00000000      -0.24455611       0.01929897      -0.01258290      -0.03616294
C       17.52359600      20.79762861      12.30052474       0.00000000      12.01100000       0.00000000       0.00000000      -0.24455611      -0.01815647      -0.04178478      -0.00605381
C       17.96916967      19.44944940      12.62023336       0.00000000      12.01100000       0.00000000       0.00000000      -0.24455611      -0.05203676       0.01826048      -0.01262939
C       19.28733523      19.06692789      12.35175275       0.00000000      12.01100000       0.00000000       0.00000000      -0.24455611       0.03259397      -0.02504390      -0.02524447
C       18.41416903      21.71051502      11.72584502       0.00000000      12.01100000       0.00000000       0.00000000      -0.24455611       0.02308929       0.01215351      -0.04305100
C       17.55773046      23.50982499      13.18521174       0.00000000      12.01100000       0.00000000       0.00000000      -0.24455611      -0.05085981       0.03407592       0.02976787
C       16.63297678      22.56093543      13.78416973       0.00000000      12.01100000       0.00000000       0.00000000      -0.24455611      -0.03502762       0.03897963       0.02106464
C       16.61601551      21.23159346      13.35010310       0.00000000      12.01100000       0.00000000       0.00000000      -0.24455611      -0.03223312      -0.03965044       0.00097656
C       18.43098156      23.09333599      12.17602536       0.00000000      12.01100000       0.00000000       0.00000000      -0.24455611       0.03048468      -0.00235188      -0.05768895
C       20.26669825      24.40426036      13.18384785       0.00000000      12.01100000       0.00000000       0.00000000      -0.24455611       0.01286666       0.06237197       0.03495157
C       19.35754366      24.83656880      14.23400441       0.00000000      12.01100000       0.00000000       0.00000000      -0.24455611       0.05517018       0.04788792       0.01350325
C       18.02994439      24.39946476      14.23441377       0.00000000      12.01100000       0.00000000       0.00000000      -0.24455611      -0.05999832       0.00756729       0.01936236
C       19.81216970      23.55038792      12.17536468       0.00000000      12.01100000       0.00000000       0.00000000      -0.24455611      -0.00089242      -0.05728137      -0.07454711
C       21.90829101      22.24474996      12.29834254       0.00000000      12.01100000       0.00000000       0.00000000      -0.24455611       0.05517405       0.01407382       0.02283466
C       22.38056644      23.13589994      13.34871077       0.00000000      12.01100000       0.00000000       0.00000000      -0.24455611       0.03954655      -0.07096171      -0.05706811
C       21.57581258      24.19339288      13.78196820       0.00000000      12.01100000       0.00000000       0.00000000      -0.24455611      -0.00822639       0.05252022       0.01030427
C       20.64965529      22.44812595      11.72441120       0.00000000      12.01100000       0.00000000       0.00000000      -0.24455611      -0.04694015       0.01793987      -0.03498518
C       20.21349478      20.01565452      11.75300849       0.00000000      12.01100000       0.00000000       0.00000000      -0.24455611       0.00429091      -0.04474906      -0.01057327
C       21.52277037      19.80360184      12.35082215       0.00000000      12.01100000       0.00000000       0.00000000      -0.24455611      -0.02270484      -0.02646746      -0.04316199
C       22.35295185      20.89646021      12.61889499       0.00000000      12.01100000       0.00000000       0.00000000      -0.24455611       0.02730787       0.05616838      -0.03154445
C       19.78502865      21.31146200      11.44696988       0.00000000      12.01100000       0.00000000       0.00000000      -0.24455611      -0.00550009       0.04161537      -0.03467250
