730
Lattice="39.52 0.0 0.0 0.0 42.78 0.0 0.0 0.0 100.0" Properties=species:S:1:pos:R:3:initial_charges:R:1:masses:R:1:id:I:1:type:I:1:mol-id:I:1:mmcharges:R:1:bonds:S:1:angles:S:1:momenta:R:3:forces:R:3 comment="LAMMPS Description" energy=-6316.10693359375 free_energy=-6316.10693359375 stress="-0.00031877157744020224 7.018332780717174e-06 -2.20678102778038e-05 7.018332780717174e-06 -0.0004078856436535716 -6.931303232704522e-06 -2.20678102778038e-05 -6.931303232704522e-06 -0.00023714909912087023" pbc="T T T"
C        0.61800000       0.35600000     -30.00000000       0.00000000      12.01100000        1        1        1       0.00000000 _ _      -0.29913240       0.13024043       0.60679355      -0.00030780       0.01551163       0.00000000
C        1.85300000       3.92200000     -30.00000000       0.00000000      12.01100000        2        1        2       0.00000000 _ _      -0.07254800      -0.66311696       0.95349629      -0.00381103      -0.04825625       0.00000000
C        1.85300000       2.49500000     -30.00000000       0.00000000      12.01100000        3        1        3       0.00000000 _ _       0.40691531       1.01749143      -0.03836851      -0.00379627       0.01828703       0.00000000
C        0.61800000       1.78200000     -30.00000000       0.00000000      12.01100000        4        1        4       0.00000000 _ _       1.14250097      -0.28100916      -0.62008733      -0.00030983       0.01450654       0.00000000
C        0.61800000       4.63400000     -30.00000000       0.00000000      12.01100000        9        1        9       0.00000000 _ _      -0.21648554      -0.62000614      -0.11488932      -0.00030701       0.02191510       0.00000000
C        1.85300000       8.20000000     -30.00000000       0.00000000      12.01100000       10        1       10       0.00000000 _ _       0.10945724      -1.29791557       0.85555930      -0.00380755      -0.03106516       0.00000000
C        1.85300000       6.77400000     -30.00000000       0.00000000      12.01100000       11        1       11       0.00000000 _ _       1.01808170       0.02993162       0.09650135      -0.00378444      -0.02986023       0.00000000
C        0.61800000       6.06000000     -30.00000000       0.00000000      12.01100000       12        1       12       0.00000000 _ _       1.17262907      -0.23815902      -0.02662502      -0.00031121       0.03292520       0.00000000
C        0.61800000       8.91200000     -30.00000000       0.00000000      12.01100000       17        1       17       0.00000000 _ _       0.01416142       0.21896389      -0.44193395      -0.00030767       0.02530450       0.00000000
C        1.85300000      12.47700000     -30.00000000       0.00000000      12.01100000       18        1       18       0.00000000 _ _      -0.20840111      -0.04910227      -0.46141931      -0.00378335       0.01651102       0.00000000
C        1.85300000      11.05100000     -30.00000000       0.00000000      12.01100000       19        1       19       0.00000000 _ _      -0.04517893      -0.59095117       0.72993764      -0.00379568       0.00912671       0.00000000
C        0.61800000      10.33800000     -30.00000000       0.00000000      12.01100000       20        1       20       0.00000000 _ _       0.47672510       0.54864355      -0.02390425      -0.00030649       0.00426797       0.00000000
C        0.61800000      13.19100000     -30.00000000       0.00000000      12.01100000       25        1       25       0.00000000 _ _      -0.11988906      -0.50494013       0.40856411      -0.00030927      -0.04152493       0.00000000
C        1.85300000      16.75500000     -30.00000000       0.00000000      12.01100000       26        1       26       0.00000000 _ _       0.43407223       0.23564625       0.28604087      -0.00379654       0.01431169       0.00000000
C        1.85300000      15.33000000     -30.00000000       0.00000000      12.01100000       27        1       27       0.00000000 _ _       0.39801203       0.49354439       0.48193041      -0.00378001      -0.03947492       0.00000000
C        0.61800000      14.61600000     -30.00000000       0.00000000      12.01100000       28        1       28       0.00000000 _ _       0.64498719       0.05145486       0.64441859      -0.00031081       0.03655579       0.00000000
C        0.61800000      17.46800000     -30.00000000       0.00000000      12.01100000       33        1       33       0.00000000 _ _       0.46321356      -0.41126457      -0.96299720      -0.00030794       0.00455208       0.00000000
C        1.85300000      21.03400000     -30.00000000       0.00000000      12.01100000       34        1       34       0.00000000 _ _      -0.86548814       0.60178816       0.25644221      -0.00381061      -0.04826277       0.00000000
C        1.85300000      19.60700000     -30.00000000       0.00000000      12.01100000       35        1       35       0.00000000 _ _      -0.54223827       0.02986132      -0.48723377      -0.00379925       0.01942784       0.00000000
C        0.61800000      18.89400000     -30.00000000       0.00000000      12.01100000       36        1       36       0.00000000 _ _       0.49526694      -0.54724682       0.28465191      -0.00031080       0.00529147       0.00000000
C        3.08800000       0.35600000     -30.00000000       0.00000000      12.01100000       41        1       41       0.00000000 _ _       1.35334715      -0.09958926       0.64547850      -0.01307549       0.01657260       0.00000000
C        4.32200000       3.92200000     -30.00000000       0.00000000      12.01100000       42        1       42       0.00000000 _ _       1.05704499       0.06864434       0.35096337       0.03369569      -0.04604422       0.00000000
C        4.32200000       2.49500000     -30.00000000       0.00000000      12.01100000       43        1       43       0.00000000 _ _      -0.20386564      -0.66489325      -0.34866406       0.03361433       0.01607721       0.00000000
C        3.08800000       1.78200000     -30.00000000       0.00000000      12.01100000       44        1       44       0.00000000 _ _       0.19939998       0.22476092      -0.16350662      -0.01304452       0.01347604       0.00000000
C        3.08800000       4.63400000     -30.00000000       0.00000000      12.01100000       49        1       49       0.00000000 _ _      -0.28192244      -0.09590470       0.11798512      -0.01307033       0.02297890       0.00000000
C        4.32200000       8.20000000     -30.00000000       0.00000000      12.01100000       50        1       50       0.00000000 _ _      -0.24113665       0.78705831      -0.01507473       0.03371796      -0.02886203       0.00000000
C        4.32200000       6.77400000     -30.00000000       0.00000000      12.01100000       51        1       51       0.00000000 _ _       0.21320372       0.72351065      -0.38633683       0.03355912      -0.03206413       0.00000000
C        3.08800000       6.06000000     -30.00000000       0.00000000      12.01100000       52        1       52       0.00000000 _ _      -0.87850380      -0.49161775      -0.30974470      -0.01302624       0.03190956       0.00000000
C        3.08800000       8.91200000     -30.00000000       0.00000000      12.01100000       57        1       57       0.00000000 _ _       1.00759975      -0.84607780      -0.66768154      -0.01308759       0.02637207       0.00000000
C        4.32200000      12.47700000     -30.00000000       0.00000000      12.01100000       58        1       58       0.00000000 _ _       0.79803909       0.61771510      -0.34537228       0.03358775       0.01871063       0.00000000
C        4.32200000      11.05100000     -30.00000000       0.00000000      12.01100000       59        1       59       0.00000000 _ _       0.42907775       0.25594465       0.34201704       0.03363556       0.00692580       0.00000000
C        3.08800000      10.33800000     -30.00000000       0.00000000      12.01100000       60        1       60       0.00000000 _ _       0.02279810      -0.08604280       0.63992514      -0.01306059       0.00323295       0.00000000
C        3.08800000      13.19100000     -30.00000000       0.00000000      12.01100000       65        1       65       0.00000000 _ _      -0.59493740      -0.95500110       0.93232590      -0.01303895      -0.04052449       0.00000000
C        4.32200000      16.75500000     -30.00000000       0.00000000      12.01100000       66        1       66       0.00000000 _ _       0.93647655       0.31092079       0.29811625       0.03365803       0.01651174       0.00000000
C        4.32200000      15.33000000     -30.00000000       0.00000000      12.01100000       67        1       67       0.00000000 _ _       0.39611764      -0.45407109       0.56035840       0.03360610      -0.04167325       0.00000000
C        3.08800000      14.61600000     -30.00000000       0.00000000      12.01100000       68        1       68       0.00000000 _ _      -0.80128969       0.07554287       0.23035303      -0.01305185       0.03555066       0.00000000
C        3.08800000      17.46800000     -30.00000000       0.00000000      12.01100000       73        1       73       0.00000000 _ _       0.21366457       0.79316799      -0.32326803      -0.01307249       0.00560035       0.00000000
C        4.32200000      21.03400000     -30.00000000       0.00000000      12.01100000       74        1       74       0.00000000 _ _       0.59046632      -0.39400417       0.07168417       0.03369075      -0.04605198       0.00000000
C        4.32200000      19.60700000     -30.00000000       0.00000000      12.01100000       75        1       75       0.00000000 _ _       0.34183429       0.60250912      -0.12393000       0.03362202       0.01721660       0.00000000
C        3.08800000      18.89400000     -30.00000000       0.00000000      12.01100000       76        1       76       0.00000000 _ _       0.32915567      -0.72853152      -0.88180448      -0.01304343       0.00425421       0.00000000
C        5.55800000       0.35600000     -30.00000000       0.00000000      12.01100000       81        1       81       0.00000000 _ _       0.10429053      -0.38664569      -0.39866131      -0.01680758       0.01684060       0.00000000
C        6.79300000       3.92200000     -30.00000000       0.00000000      12.01100000       82        1       82       0.00000000 _ _       0.33827236      -0.18171075       0.33527617      -0.02029318      -0.04699419       0.00000000
C        6.79300000       2.49500000     -30.00000000       0.00000000      12.01100000       83        1       83       0.00000000 _ _      -0.79927753      -0.31177778       0.07033141      -0.02023340       0.01700030       0.00000000
C        5.55800000       1.78200000     -30.00000000       0.00000000      12.01100000       84        1       84       0.00000000 _ _       0.85247812      -0.13388733       0.00776236      -0.01677348       0.01315801       0.00000000
C        5.55800000       4.63400000     -30.00000000       0.00000000      12.01100000       89        1       89       0.00000000 _ _       0.46853906      -0.41247617      -0.51852480      -0.01680814       0.02323137       0.00000000
C        6.79300000       8.20000000     -30.00000000       0.00000000      12.01100000       90        1       90       0.00000000 _ _      -0.11233509       0.73485190       0.71667191      -0.02029851      -0.02979214       0.00000000
C        6.79300000       6.77400000     -30.00000000       0.00000000      12.01100000       91        1       91       0.00000000 _ _       0.59633833       0.30831443      -0.83140558      -0.02019146      -0.03118248       0.00000000
C        5.55800000       6.06000000     -30.00000000       0.00000000      12.01100000       92        1       92       0.00000000 _ _       0.15192168      -0.41142129       0.57256959      -0.01674886       0.03157332       0.00000000
C        5.55800000       8.91200000     -30.00000000       0.00000000      12.01100000       97        1       97       0.00000000 _ _       0.09196822      -0.03047339       0.09010822      -0.01681850       0.02662036       0.00000000
C        6.79300000      12.47700000     -30.00000000       0.00000000      12.01100000       98        1       98       0.00000000 _ _       0.71139885      -0.08473914      -0.94482055      -0.02020755       0.01781766       0.00000000
C        6.79300000      11.05100000     -30.00000000       0.00000000      12.01100000       99        1       99       0.00000000 _ _       0.61309316      -0.78047221       0.53270424      -0.02024440       0.00784004       0.00000000
C        5.55800000      10.33800000     -30.00000000       0.00000000      12.01100000      100        1      100       0.00000000 _ _      -0.22731460      -0.03429635      -0.52944707      -0.01678248       0.00292927       0.00000000
C        5.55800000      13.19100000     -30.00000000       0.00000000      12.01100000      105        1      105       0.00000000 _ _       0.27542004       0.17440230       0.19905198      -0.01675604      -0.04017302       0.00000000
C        6.79300000      16.75500000     -30.00000000       0.00000000      12.01100000      106        1      106       0.00000000 _ _      -0.28615016       0.10656642      -0.03702899      -0.02024867       0.01562030       0.00000000
C        6.79300000      15.33000000     -30.00000000       0.00000000      12.01100000      107        1      107       0.00000000 _ _      -0.58181156      -0.05079427       0.04983240      -0.02021072      -0.04080011       0.00000000
C        5.55800000      14.61600000     -30.00000000       0.00000000      12.01100000      108        1      108       0.00000000 _ _       0.01643384      -0.84434526      -0.60934061      -0.01677022       0.03521114       0.00000000
C        5.55800000      17.46800000     -30.00000000       0.00000000      12.01100000      113        1      113       0.00000000 _ _      -0.54822766      -0.12424951      -0.17463277      -0.01679606       0.00587440       0.00000000
C        6.79300000      21.03400000     -30.00000000       0.00000000      12.01100000      114        1      114       0.00000000 _ _      -1.08559389      -0.21990843      -0.41653872      -0.02028796      -0.04700243       0.00000000
C        6.79300000      19.60700000     -30.00000000       0.00000000      12.01100000      115        1      115       0.00000000 _ _       0.30931024       0.07544183       0.57860211      -0.02023933       0.01814019       0.00000000
C        5.55800000      18.89400000     -30.00000000       0.00000000      12.01100000      116        1      116       0.00000000 _ _       0.06514392      -0.42433749       0.85750028      -0.01677042       0.00395684       0.00000000
C        8.02700000       0.35600000     -30.00000000       0.00000000      12.01100000      121        1      121       0.00000000 _ _      -0.18850036      -1.01510605       0.16823168       0.02101624       0.01712273       0.00000000
C        9.26200000       3.92200000     -30.00000000       0.00000000      12.01100000      122        1      122       0.00000000 _ _      -0.63946131       0.90472285      -0.72457549       0.02108196      -0.04610039       0.00000000
C        9.26200000       2.49500000     -30.00000000       0.00000000      12.01100000      123        1      123       0.00000000 _ _       0.88875167       1.27195085       0.72653031       0.02103336       0.01615908       0.00000000
C        8.02700000       1.78200000     -30.00000000       0.00000000      12.01100000      124        1      124       0.00000000 _ _       0.33928316       0.10758314      -0.26824205       0.02096606       0.01292643       0.00000000
C        8.02700000       4.63400000     -30.00000000       0.00000000      12.01100000      129        1      129       0.00000000 _ _       0.97784917      -0.51132857      -0.69154102       0.02101984       0.02352988       0.00000000
C        9.26200000       8.20000000     -30.00000000       0.00000000      12.01100000      130        1      130       0.00000000 _ _       0.12179882       0.28571824      -0.64082927       0.02109482      -0.02892811       0.00000000
C        9.26200000       6.77400000     -30.00000000       0.00000000      12.01100000      131        1      131       0.00000000 _ _       0.11125232      -0.18052168      -0.07443064       0.02099902      -0.03193632       0.00000000
C        8.02700000       6.06000000     -30.00000000       0.00000000      12.01100000      132        1      132       0.00000000 _ _      -0.42140862       0.72438866      -0.41966635       0.02092061       0.03136038       0.00000000
C        8.02700000       8.91200000     -30.00000000       0.00000000      12.01100000      137        1      137       0.00000000 _ _       0.00536358      -0.02463068      -0.73221527       0.02102417       0.02692251       0.00000000
C        9.26200000      12.47700000     -30.00000000       0.00000000      12.01100000      138        1      138       0.00000000 _ _      -0.60504414       0.17942770       0.07196668       0.02100760       0.01859520       0.00000000
C        9.26200000      11.05100000     -30.00000000       0.00000000      12.01100000      139        1      139       0.00000000 _ _       0.01655839      -0.64577575       0.51249102       0.02104693       0.00701641       0.00000000
C        8.02700000      10.33800000     -30.00000000       0.00000000      12.01100000      140        1      140       0.00000000 _ _      -0.37868023       0.05075391      -0.08404082       0.02097078       0.00267923       0.00000000
C        8.02700000      13.19100000     -30.00000000       0.00000000      12.01100000      145        1      145       0.00000000 _ _       0.40933094      -0.23160931       0.33905455       0.02093193      -0.03997386       0.00000000
C        9.26200000      16.75500000     -30.00000000       0.00000000      12.01100000      146        1      146       0.00000000 _ _       1.22478800       0.30612406       0.17486442       0.02105533       0.01640326       0.00000000
C        9.26200000      15.33000000     -30.00000000       0.00000000      12.01100000      147        1      147       0.00000000 _ _      -0.14471935       0.46105680       0.61094515       0.02101820      -0.04153687       0.00000000
C        8.02700000      14.61600000     -30.00000000       0.00000000      12.01100000      148        1      148       0.00000000 _ _      -0.14017229       0.58395501       0.04842142       0.02093988       0.03500098       0.00000000
C        8.02700000      17.46800000     -30.00000000       0.00000000      12.01100000      153        1      153       0.00000000 _ _      -0.93584931      -0.47365300      -0.17323458       0.02098156       0.00614681       0.00000000
C        9.26200000      21.03400000     -30.00000000       0.00000000      12.01100000      154        1      154       0.00000000 _ _       0.82958094       0.18382059       1.38382526       0.02108047      -0.04610800       0.00000000
C        9.26200000      19.60700000     -30.00000000       0.00000000      12.01100000      155        1      155       0.00000000 _ _       0.79307364      -0.48044650       0.24141901       0.02103525       0.01730143       0.00000000
C        8.02700000      18.89400000     -30.00000000       0.00000000      12.01100000      156        1      156       0.00000000 _ _       0.49020844       0.16860880      -0.01902952       0.02096437       0.00370386       0.00000000
C       10.49800000       0.35600000     -30.00000000       0.00000000      12.01100000      161        1      161       0.00000000 _ _      -0.25399169      -0.61564914       0.14329758      -0.01657596       0.01406012       0.00000000
C       11.73300000       3.92200000     -30.00000000       0.00000000      12.01100000      162        1      162       0.00000000 _ _      -1.51392401       0.37830266       0.07392156      -0.00399139      -0.04547459       0.00000000
C       11.73300000       2.49500000     -30.00000000       0.00000000      12.01100000      163        1      163       0.00000000 _ _      -0.75913773      -0.34615310       0.08611392      -0.00398214       0.01551245       0.00000000
C       10.49800000       1.78200000     -30.00000000       0.00000000      12.01100000      164        1      164       0.00000000 _ _      -0.38476062       0.68166395       0.33954509      -0.01653807       0.01592962       0.00000000
C       10.49800000       4.63400000     -30.00000000       0.00000000      12.01100000      169        1      169       0.00000000 _ _       0.62819633      -0.71048516       0.31172382      -0.01657540       0.02045990       0.00000000
C       11.73300000       8.20000000     -30.00000000       0.00000000      12.01100000      170        1      170       0.00000000 _ _      -0.09318768       0.56104592       0.52461854      -0.00399155      -0.02828788       0.00000000
C       11.73300000       6.77400000     -30.00000000       0.00000000      12.01100000      171        1      171       0.00000000 _ _       0.25208657       0.31407309       0.92723766      -0.00397000      -0.03262002       0.00000000
C       10.49800000       6.06000000     -30.00000000       0.00000000      12.01100000      172        1      172       0.00000000 _ _       0.16044664      -0.27756485       0.42844627      -0.01651413       0.03432431       0.00000000
C       10.49800000       8.91200000     -30.00000000       0.00000000      12.01100000      177        1      177       0.00000000 _ _      -0.31655421       1.34742869       0.61116877      -0.01658593       0.02385117       0.00000000
C       11.73300000      12.47700000     -30.00000000       0.00000000      12.01100000      178        1      178       0.00000000 _ _      -0.29065814      -0.25414500      -0.19327725      -0.00396638       0.01926500       0.00000000
C       11.73300000      11.05100000     -30.00000000       0.00000000      12.01100000      179        1      179       0.00000000 _ _       0.36589099      -0.20594978      -0.73247168      -0.00398144       0.00636287       0.00000000
C       10.49800000      10.33800000     -30.00000000       0.00000000      12.01100000      180        1      180       0.00000000 _ _       1.27488898      -0.77572866      -0.19239335      -0.01655046       0.00568733       0.00000000
C       10.49800000      13.19100000     -30.00000000       0.00000000      12.01100000      185        1      185       0.00000000 _ _      -0.07665302       0.76559669       1.16432049      -0.01652202      -0.04291012       0.00000000
C       11.73300000      16.75500000     -30.00000000       0.00000000      12.01100000      186        1      186       0.00000000 _ _       0.85531163       0.34335969      -0.67948745      -0.00397946       0.01707632       0.00000000
C       11.73300000      15.33000000     -30.00000000       0.00000000      12.01100000      187        1      187       0.00000000 _ _       0.49618030      -0.65131573       0.83929033      -0.00396576      -0.04222769       0.00000000
C       10.49800000      14.61600000     -30.00000000       0.00000000      12.01100000      188        1      188       0.00000000 _ _       0.78635967      -0.65385568       0.60513802      -0.01653403       0.03794917       0.00000000
C       10.49800000      17.46800000     -30.00000000       0.00000000      12.01100000      193        1      193       0.00000000 _ _      -0.39300093      -0.97912745       0.30170088      -0.01656442       0.00311713       0.00000000
C       11.73300000      21.03400000     -30.00000000       0.00000000      12.01100000      194        1      194       0.00000000 _ _      -0.08459457      -0.19191780      -0.17624369      -0.00399197      -0.04548398       0.00000000
C       11.73300000      19.60700000     -30.00000000       0.00000000      12.01100000      195        1      195       0.00000000 _ _      -1.22146197      -0.66824853      -0.27548641      -0.00397844       0.01665481       0.00000000
C       10.49800000      18.89400000     -30.00000000       0.00000000      12.01100000      196        1      196       0.00000000 _ _       0.49714037      -0.03075262      -0.57699695      -0.01653712       0.00671372       0.00000000
C       12.96800000       0.35600000     -30.00000000       0.00000000      12.01100000      201        1      201       0.00000000 _ _      -0.46547932       0.48442375      -0.22491151      -0.00043050       0.01664895       0.00000000
C       14.20300000       3.92200000     -30.00000000       0.00000000      12.01100000      202        1      202       0.00000000 _ _      -0.09753736      -1.23965132      -0.75648821      -0.00018932      -0.04650898       0.00000000
C       14.20300000       2.49500000     -30.00000000       0.00000000      12.01100000      203        1      203       0.00000000 _ _      -0.11017686      -0.12087600       0.43088073      -0.00018994       0.01653906       0.00000000
C       12.96800000       1.78200000     -30.00000000       0.00000000      12.01100000      204        1      204       0.00000000 _ _      -1.10834097       0.73243824      -0.04449320      -0.00042948       0.01337356       0.00000000
C       12.96800000       4.63400000     -30.00000000       0.00000000      12.01100000      209        1      209       0.00000000 _ _       0.01229770       0.78124995       0.46587669      -0.00043243       0.02304856       0.00000000
C       14.20300000       8.20000000     -30.00000000       0.00000000      12.01100000      210        1      210       0.00000000 _ _      -0.19366081      -0.36385389       0.51170429      -0.00019145      -0.02932017       0.00000000
C       14.20300000       6.77400000     -30.00000000       0.00000000      12.01100000      211        1      211       0.00000000 _ _       0.10033426      -1.00329174       0.40107411      -0.00019093      -0.03159605       0.00000000
C       12.96800000       6.06000000     -30.00000000       0.00000000      12.01100000      212        1      212       0.00000000 _ _       0.56406016       0.57088004       0.03136081      -0.00043199       0.03179104       0.00000000
C       12.96800000       8.91200000     -30.00000000       0.00000000      12.01100000      217        1      217       0.00000000 _ _       0.11951901      -0.65954329      -0.83870486      -0.00043225       0.02644085       0.00000000
C       14.20300000      12.47700000     -30.00000000       0.00000000      12.01100000      218        1      218       0.00000000 _ _      -0.54125516      -0.52742138      -1.03464694      -0.00018964       0.01824265       0.00000000
C       14.20300000      11.05100000     -30.00000000       0.00000000      12.01100000      219        1      219       0.00000000 _ _       0.07768945       0.26565353      -0.21599357      -0.00019044       0.00738880       0.00000000
C       12.96800000      10.33800000     -30.00000000       0.00000000      12.01100000      220        1      220       0.00000000 _ _      -0.90019875       0.41543060      -0.34376817      -0.00043093       0.00312988       0.00000000
C       12.96800000      13.19100000     -30.00000000       0.00000000      12.01100000      225        1      225       0.00000000 _ _       0.47571647       0.29650216       0.38147060      -0.00043426      -0.04039419       0.00000000
C       14.20300000      16.75500000     -30.00000000       0.00000000      12.01100000      226        1      226       0.00000000 _ _       0.15327462      -0.42755166      -0.26607181      -0.00019121       0.01604953       0.00000000
C       14.20300000      15.33000000     -30.00000000       0.00000000      12.01100000      227        1      227       0.00000000 _ _       0.72579468       0.64688088       0.01738160      -0.00019132      -0.04120375       0.00000000
C       12.96800000      14.61600000     -30.00000000       0.00000000      12.01100000      228        1      228       0.00000000 _ _       0.65731323      -1.39522285       0.22301805      -0.00043325       0.03542786       0.00000000
C       12.96800000      17.46800000     -30.00000000       0.00000000      12.01100000      233        1      233       0.00000000 _ _       0.03235446       1.13591103       0.69581704      -0.00043064       0.00568577       0.00000000
C       14.20300000      21.03400000     -30.00000000       0.00000000      12.01100000      234        1      234       0.00000000 _ _      -0.09087230       0.43735682       0.00685094      -0.00018930      -0.04651147       0.00000000
C       14.20300000      19.60700000     -30.00000000       0.00000000      12.01100000      235        1      235       0.00000000 _ _      -1.11516836      -0.37481987      -0.14748163      -0.00018853       0.01767981       0.00000000
C       12.96800000      18.89400000     -30.00000000       0.00000000      12.01100000      236        1      236       0.00000000 _ _      -0.72800627      -0.28517092       0.31588368      -0.00043535       0.00415631       0.00000000
C       15.43800000       0.35600000     -30.00000000       0.00000000      12.01100000      241        1      241       0.00000000 _ _      -0.00940428       0.17325579      -0.47857905      -0.00006018       0.01612214       0.00000000
C       16.67300000       3.92200000     -30.00000000       0.00000000      12.01100000      242        1      242       0.00000000 _ _      -0.01270144      -0.60479244      -0.48784378      -0.00008891      -0.04656855       0.00000000
C       16.67300000       2.49500000     -30.00000000       0.00000000      12.01100000      243        1      243       0.00000000 _ _      -0.11377494       0.16981080      -0.67470633      -0.00008893       0.01660074       0.00000000
C       15.43800000       1.78200000     -30.00000000       0.00000000      12.01100000      244        1      244       0.00000000 _ _       0.22602718       0.32051387      -0.37589700      -0.00006074       0.01390035       0.00000000
C       15.43800000       4.63400000     -30.00000000       0.00000000      12.01100000      249        1      249       0.00000000 _ _       0.09846480      -0.67694450      -0.52142978      -0.00006145       0.02252305       0.00000000
C       16.67300000       8.20000000     -30.00000000       0.00000000      12.01100000      250        1      250       0.00000000 _ _       0.22295169      -0.65827531       1.07900031      -0.00008949      -0.02938351       0.00000000
C       16.67300000       6.77400000     -30.00000000       0.00000000      12.01100000      251        1      251       0.00000000 _ _       0.07663759      -0.37151993      -0.16846444      -0.00008952      -0.03153566       0.00000000
C       15.43800000       6.06000000     -30.00000000       0.00000000      12.01100000      252        1      252       0.00000000 _ _       0.08831991      -0.22890108       0.50415653      -0.00005847       0.03231705       0.00000000
C       15.43800000       8.91200000     -30.00000000       0.00000000      12.01100000      257        1      257       0.00000000 _ _       0.43404310       0.38391597      -1.33901615      -0.00006042       0.02591433       0.00000000
C       16.67300000      12.47700000     -30.00000000       0.00000000      12.01100000      258        1      258       0.00000000 _ _      -0.48958348       0.18603090      -0.39039718      -0.00008923       0.01818228       0.00000000
C       16.67300000      11.05100000     -30.00000000       0.00000000      12.01100000      259        1      259       0.00000000 _ _      -0.95989626       0.08691021      -0.97103245      -0.00008999       0.00744978       0.00000000
C       15.43800000      10.33800000     -30.00000000       0.00000000      12.01100000      260        1      260       0.00000000 _ _      -0.06112644      -0.23475406       0.00784268      -0.00005847       0.00365820       0.00000000
C       15.43800000      13.19100000     -30.00000000       0.00000000      12.01100000      265        1      265       0.00000000 _ _       0.86790432      -0.11709320      -0.61487912      -0.00005883      -0.04091799       0.00000000
C       16.67300000      16.75500000     -30.00000000       0.00000000      12.01100000      266        1      266       0.00000000 _ _       0.13339463      -0.22868347      -0.36994826      -0.00009027       0.01599043       0.00000000
C       16.67300000      15.33000000     -30.00000000       0.00000000      12.01100000      267        1      267       0.00000000 _ _      -0.41028013      -0.52952041       0.32685066      -0.00008912      -0.04114538       0.00000000
C       15.43800000      14.61600000     -30.00000000       0.00000000      12.01100000      268        1      268       0.00000000 _ _       0.41104992       0.06949314       0.22667598      -0.00006015       0.03594950       0.00000000
C       15.43800000      17.46800000     -30.00000000       0.00000000      12.01100000      273        1      273       0.00000000 _ _      -0.38186365       0.40347539       0.12073518      -0.00005907       0.00515875       0.00000000
C       16.67300000      21.03400000     -30.00000000       0.00000000      12.01100000      274        1      274       0.00000000 _ _       0.37789153       0.29602548       0.38881462      -0.00009092      -0.04657709       0.00000000
C       16.67300000      19.60700000     -30.00000000       0.00000000      12.01100000      275        1      275       0.00000000 _ _       0.00388285      -0.55386529      -0.35297675      -0.00008909       0.01774347       0.00000000
C       15.43800000      18.89400000     -30.00000000       0.00000000      12.01100000      276        1      276       0.00000000 _ _      -0.56735503       0.70186674      -0.26707944      -0.00005877       0.00468360       0.00000000
C       17.90800000       0.35600000     -30.00000000       0.00000000      12.01100000      281        1      281       0.00000000 _ _      -0.06414055      -0.91692135      -0.68435938      -0.00005613       0.01610259       0.00000000
C       19.14300000       3.92200000     -30.00000000       0.00000000      12.01100000      282        1      282       0.00000000 _ _       0.12743089      -0.30126828       0.61790149      -0.00011998      -0.04664121       0.00000000
C       19.14300000       2.49500000     -30.00000000       0.00000000      12.01100000      283        1      283       0.00000000 _ _      -0.50511215       1.67006408       0.02242464      -0.00011951       0.01667284       0.00000000
C       17.90800000       1.78200000     -30.00000000       0.00000000      12.01100000      284        1      284       0.00000000 _ _       0.51082196      -0.56130612       0.59798684      -0.00005282       0.01392142       0.00000000
C       17.90800000       4.63400000     -30.00000000       0.00000000      12.01100000      289        1      289       0.00000000 _ _       0.11079166      -0.21036803       0.38133076      -0.00005362       0.02250230       0.00000000
C       19.14300000       8.20000000     -30.00000000       0.00000000      12.01100000      290        1      290       0.00000000 _ _       0.08668047       0.39121371      -1.03471272      -0.00012052      -0.02945441       0.00000000
C       19.14300000       6.77400000     -30.00000000       0.00000000      12.01100000      291        1      291       0.00000000 _ _      -0.15871422       0.03021127      -1.17843809      -0.00011751      -0.03146482       0.00000000
C       17.90800000       6.06000000     -30.00000000       0.00000000      12.01100000      292        1      292       0.00000000 _ _       0.53919865       0.31991445       0.44449842      -0.00005549       0.03233556       0.00000000
C       17.90800000       8.91200000     -30.00000000       0.00000000      12.01100000      297        1      297       0.00000000 _ _       0.06390768       0.07591308       0.26384264      -0.00005436       0.02589465       0.00000000
C       19.14300000      12.47700000     -30.00000000       0.00000000      12.01100000      298        1      298       0.00000000 _ _      -0.29357389       0.22755634      -1.26872740      -0.00011717       0.01811448       0.00000000
C       19.14300000      11.05100000     -30.00000000       0.00000000      12.01100000      299        1      299       0.00000000 _ _       0.36372111       0.07821641      -0.16976060      -0.00011908       0.00752098       0.00000000
C       17.90800000      10.33800000     -30.00000000       0.00000000      12.01100000      300        1      300       0.00000000 _ _       0.35092877       0.23414204       0.13718189      -0.00005602       0.00367756       0.00000000
C       17.90800000      13.19100000     -30.00000000       0.00000000      12.01100000      305        1      305       0.00000000 _ _      -0.07515475       0.73775905       0.45602521      -0.00005440      -0.04093979       0.00000000
C       19.14300000      16.75500000     -30.00000000       0.00000000      12.01100000      306        1      306       0.00000000 _ _      -0.05642032       0.74805234      -0.96249008      -0.00011805       0.01591915       0.00000000
C       19.14300000      15.33000000     -30.00000000       0.00000000      12.01100000      307        1      307       0.00000000 _ _       0.68906423      -0.73421870      -0.52336391      -0.00011864      -0.04107672       0.00000000
C       17.90800000      14.61600000     -30.00000000       0.00000000      12.01100000      308        1      308       0.00000000 _ _       0.66355077      -0.15339308       0.12834778      -0.00005458       0.03597137       0.00000000
C       17.90800000      17.46800000     -30.00000000       0.00000000      12.01100000      313        1      313       0.00000000 _ _      -0.48938778      -0.32599420       0.16557857      -0.00005603       0.00513899       0.00000000
C       19.14300000      21.03400000     -30.00000000       0.00000000      12.01100000      314        1      314       0.00000000 _ _       0.12801989      -0.25377382      -0.25313825      -0.00011839      -0.04665061       0.00000000
C       19.14300000      19.60700000     -30.00000000       0.00000000      12.01100000      315        1      315       0.00000000 _ _       0.41763600       0.00494920       0.55635957      -0.00011786       0.01781612       0.00000000
C       17.90800000      18.89400000     -30.00000000       0.00000000      12.01100000      316        1      316       0.00000000 _ _      -0.59760409       0.19323866       0.22286070      -0.00005479       0.00470504       0.00000000
C       20.37800000       0.35600000     -30.00000000       0.00000000      12.01100000        1        1        1       0.00000000 _ _      -0.19040907      -0.62292421      -0.30469441      -0.00029577       0.01551684       0.00000000
C       21.61300000       3.92200000     -30.00000000       0.00000000      12.01100000        2        1        2       0.00000000 _ _       0.08717941      -0.95323571      -0.06831958      -0.00383550      -0.04825686       0.00000000
C       21.61300000       2.49500000     -30.00000000       0.00000000      12.01100000        3        1        3       0.00000000 _ _       0.51164236       0.35834720       0.38781161      -0.00382050       0.01828484       0.00000000
C       20.37800000       1.78200000     -30.00000000       0.00000000      12.01100000        4        1        4       0.00000000 _ _      -1.68159194      -0.87880382      -0.19221750      -0.00029815       0.01450538       0.00000000
C       20.37800000       4.63400000     -30.00000000       0.00000000      12.01100000        9        1        9       0.00000000 _ _      -0.40691210       0.25797791      -0.37579640      -0.00029502       0.02191814       0.00000000
C       21.61300000       8.20000000     -30.00000000       0.00000000      12.01100000       10        1       10       0.00000000 _ _      -0.58797153      -0.46609267      -0.34249328      -0.00383198      -0.03106790       0.00000000
C       21.61300000       6.77400000     -30.00000000       0.00000000      12.01100000       11        1       11       0.00000000 _ _      -0.03283520       0.92148397      -0.31634075      -0.00380730      -0.02986061       0.00000000
C       20.37800000       6.06000000     -30.00000000       0.00000000      12.01100000       12        1       12       0.00000000 _ _       0.89325309       0.44233626       0.07937473      -0.00029944       0.03292102       0.00000000
C       20.37800000       8.91200000     -30.00000000       0.00000000      12.01100000       17        1       17       0.00000000 _ _      -0.04430902      -0.23070326       0.46512577      -0.00029584       0.02530998       0.00000000
C       21.61300000      12.47700000     -30.00000000       0.00000000      12.01100000       18        1       18       0.00000000 _ _      -0.53982838      -0.04693125      -0.55222996      -0.00380823       0.01651243       0.00000000
C       21.61300000      11.05100000     -30.00000000       0.00000000      12.01100000       19        1       19       0.00000000 _ _       0.51961694       0.89722018       0.26113655      -0.00382032       0.00912533       0.00000000
C       20.37800000      10.33800000     -30.00000000       0.00000000      12.01100000       20        1       20       0.00000000 _ _       0.51795641       0.35568851      -0.84507461      -0.00029607       0.00426472       0.00000000
C       20.37800000      13.19100000     -30.00000000       0.00000000      12.01100000       25        1       25       0.00000000 _ _       0.65319725       0.04313377      -0.53149364      -0.00030040      -0.04152027       0.00000000
C       21.61300000      16.75500000     -30.00000000       0.00000000      12.01100000       26        1       26       0.00000000 _ _      -1.04078110      -0.84578739       0.12109053      -0.00381934       0.01431541       0.00000000
C       21.61300000      15.33000000     -30.00000000       0.00000000      12.01100000       27        1       27       0.00000000 _ _       0.16251350       0.16722451      -0.78021824      -0.00380321      -0.03947613       0.00000000
C       20.37800000      14.61600000     -30.00000000       0.00000000      12.01100000       28        1       28       0.00000000 _ _      -0.44695903       0.79093692       0.78274392      -0.00030047       0.03655007       0.00000000
C       20.37800000      17.46800000     -30.00000000       0.00000000      12.01100000       33        1       33       0.00000000 _ _       0.26621394      -0.68766884      -0.72626339      -0.00029533       0.00455507       0.00000000
C       21.61300000      21.03400000     -30.00000000       0.00000000      12.01100000       34        1       34       0.00000000 _ _       0.44741551      -0.22986017      -0.07729672      -0.00383367      -0.04826415       0.00000000
C       21.61300000      19.60700000     -30.00000000       0.00000000      12.01100000       35        1       35       0.00000000 _ _       2.04085228      -0.06228425       0.08027682      -0.00382248       0.01942622       0.00000000
C       20.37800000      18.89400000     -30.00000000       0.00000000      12.01100000       36        1       36       0.00000000 _ _       0.13519928      -0.29696447       0.54936174      -0.00029890       0.00528847       0.00000000
C       22.84800000       0.35600000     -30.00000000       0.00000000      12.01100000       41        1       41       0.00000000 _ _       0.31403830      -0.09496983       0.26951700      -0.01303174       0.01657241       0.00000000
C       24.08200000       3.92200000     -30.00000000       0.00000000      12.01100000       42        1       42       0.00000000 _ _       0.08436142      -0.71604580      -0.57494164       0.03367501      -0.04604741       0.00000000
C       24.08200000       2.49500000     -30.00000000       0.00000000      12.01100000       43        1       43       0.00000000 _ _      -0.49235494      -0.78006822       0.06665207       0.03359195       0.01607816       0.00000000
C       22.84800000       1.78200000     -30.00000000       0.00000000      12.01100000       44        1       44       0.00000000 _ _      -1.14926342       0.12546195       0.09399847      -0.01300425       0.01347858       0.00000000
C       22.84800000       4.63400000     -30.00000000       0.00000000      12.01100000       49        1       49       0.00000000 _ _       1.11472642      -0.42376940      -0.17847963      -0.01303098       0.02297948       0.00000000
C       24.08200000       8.20000000     -30.00000000       0.00000000      12.01100000       50        1       50       0.00000000 _ _       0.78972749      -0.31470212       0.63864748       0.03369580      -0.02886321       0.00000000
C       24.08200000       6.77400000     -30.00000000       0.00000000      12.01100000       51        1       51       0.00000000 _ _       0.36985030      -0.09266269      -0.53589381       0.03353811      -0.03206309       0.00000000
C       22.84800000       6.06000000     -30.00000000       0.00000000      12.01100000       52        1       52       0.00000000 _ _      -0.31198107       0.53503447      -0.53215488      -0.01298670       0.03191177       0.00000000
C       22.84800000       8.91200000     -30.00000000       0.00000000      12.01100000       57        1       57       0.00000000 _ _       0.14795964      -0.49847656       0.72037292      -0.01304738       0.02637031       0.00000000
C       24.08200000      12.47700000     -30.00000000       0.00000000      12.01100000       58        1       58       0.00000000 _ _      -0.51954601      -0.53034462       0.51904594       0.03356575       0.01870885       0.00000000
C       24.08200000      11.05100000     -30.00000000       0.00000000      12.01100000       59        1       59       0.00000000 _ _       0.17798229       0.52436193       0.38642496       0.03361374       0.00692684       0.00000000
C       22.84800000      10.33800000     -30.00000000       0.00000000      12.01100000       60        1       60       0.00000000 _ _       0.64709354      -0.43316370       0.23062210      -0.01301810       0.00323426       0.00000000
C       22.84800000      13.19100000     -30.00000000       0.00000000      12.01100000       65        1       65       0.00000000 _ _      -0.36540520       0.59228251       0.17862348      -0.01299681      -0.04052402       0.00000000
C       24.08200000      16.75500000     -30.00000000       0.00000000      12.01100000       66        1       66       0.00000000 _ _      -0.55178658       0.57370310       0.62901837       0.03363607       0.01651126       0.00000000
C       24.08200000      15.33000000     -30.00000000       0.00000000      12.01100000       67        1       67       0.00000000 _ _       0.12629102      -0.03667067       0.27267065       0.03358416      -0.04167040       0.00000000
C       22.84800000      14.61600000     -30.00000000       0.00000000      12.01100000       68        1       68       0.00000000 _ _      -1.26050231      -0.65204923      -0.42247772      -0.01301127       0.03555007       0.00000000
C       22.84800000      17.46800000     -30.00000000       0.00000000      12.01100000       73        1       73       0.00000000 _ _      -1.01049747       0.23903835      -0.14818156      -0.01303110       0.00559799       0.00000000
C       24.08200000      21.03400000     -30.00000000       0.00000000      12.01100000       74        1       74       0.00000000 _ _      -0.67653572       0.01284077       0.29199262       0.03367224      -0.04605461       0.00000000
C       24.08200000      19.60700000     -30.00000000       0.00000000      12.01100000       75        1       75       0.00000000 _ _      -0.00450294       0.69558689      -0.04068413       0.03359946       0.01721787       0.00000000
C       22.84800000      18.89400000     -30.00000000       0.00000000      12.01100000       76        1       76       0.00000000 _ _      -0.36275319      -0.72446267      -0.80178823      -0.01300043       0.00425573       0.00000000
C       25.31800000       0.35600000     -30.00000000       0.00000000      12.01100000       81        1       81       0.00000000 _ _      -0.57566806      -0.10740063      -0.44482970      -0.01683392       0.01683824       0.00000000
C       26.55300000       3.92200000     -30.00000000       0.00000000      12.01100000       82        1       82       0.00000000 _ _      -0.34594663      -0.43664062      -0.62744583      -0.02025736      -0.04699726       0.00000000
C       26.55300000       2.49500000     -30.00000000       0.00000000      12.01100000       83        1       83       0.00000000 _ _      -0.13871576       0.12657954      -0.38198167      -0.02019939       0.01700229       0.00000000
C       25.31800000       1.78200000     -30.00000000       0.00000000      12.01100000       84        1       84       0.00000000 _ _      -0.17964067       1.14188859      -0.28146378      -0.01679556       0.01316274       0.00000000
C       25.31800000       4.63400000     -30.00000000       0.00000000      12.01100000       89        1       89       0.00000000 _ _       1.37236532      -0.44584697      -0.56681802      -0.01683196       0.02323019       0.00000000
C       26.55300000       8.20000000     -30.00000000       0.00000000      12.01100000       90        1       90       0.00000000 _ _      -1.49176838       0.42113111      -0.54496535      -0.02026181      -0.02979571       0.00000000
C       26.55300000       6.77400000     -30.00000000       0.00000000      12.01100000       91        1       91       0.00000000 _ _      -0.30514342       0.46935021       0.26275190      -0.02015407      -0.03118080       0.00000000
C       25.31800000       6.06000000     -30.00000000       0.00000000      12.01100000       92        1       92       0.00000000 _ _       0.34576425       0.37168095      -0.47316872      -0.01677347       0.03157417       0.00000000
C       25.31800000       8.91200000     -30.00000000       0.00000000      12.01100000       97        1       97       0.00000000 _ _       0.53207485      -0.15651623       0.62016644      -0.01684312       0.02661929       0.00000000
C       26.55300000      12.47700000     -30.00000000       0.00000000      12.01100000       98        1       98       0.00000000 _ _       0.30261023       0.54144287      -0.22790504      -0.02017075       0.01781541       0.00000000
C       26.55300000      11.05100000     -30.00000000       0.00000000      12.01100000       99        1       99       0.00000000 _ _      -0.08094608       0.31879130      -0.26695057      -0.02020872       0.00784019       0.00000000
C       25.31800000      10.33800000     -30.00000000       0.00000000      12.01100000      100        1      100       0.00000000 _ _       0.14760781       0.05220924      -0.26291899      -0.01680643       0.00293207       0.00000000
C       25.31800000      13.19100000     -30.00000000       0.00000000      12.01100000      105        1      105       0.00000000 _ _       0.23991300       0.63265935       0.71579879      -0.01678162      -0.04017477       0.00000000
C       26.55300000      16.75500000     -30.00000000       0.00000000      12.01100000      106        1      106       0.00000000 _ _       0.39544914       0.23636117       0.19914335      -0.02021492       0.01561907       0.00000000
C       26.55300000      15.33000000     -30.00000000       0.00000000      12.01100000      107        1      107       0.00000000 _ _      -0.15797412      -0.30048287      -1.25304149      -0.02017412      -0.04079756       0.00000000
C       25.31800000      14.61600000     -30.00000000       0.00000000      12.01100000      108        1      108       0.00000000 _ _       0.42053888      -0.47999770       0.55467262      -0.01679505       0.03521317       0.00000000
C       25.31800000      17.46800000     -30.00000000       0.00000000      12.01100000      113        1      113       0.00000000 _ _      -0.43797962      -0.08443460      -1.17330422      -0.01682046       0.00587249       0.00000000
C       26.55300000      21.03400000     -30.00000000       0.00000000      12.01100000      114        1      114       0.00000000 _ _      -0.27335778       0.32447841       0.21933378      -0.02025327      -0.04700496       0.00000000
C       26.55300000      19.60700000     -30.00000000       0.00000000      12.01100000      115        1      115       0.00000000 _ _       0.29364601       0.72414538       0.54386113      -0.02020393       0.01814181       0.00000000
C       25.31800000      18.89400000     -30.00000000       0.00000000      12.01100000      116        1      116       0.00000000 _ _       0.12402311       0.84654555      -0.71471753      -0.01679553       0.00395958       0.00000000
C       27.78700000       0.35600000     -30.00000000       0.00000000      12.01100000      121        1      121       0.00000000 _ _       0.02252916      -0.03331853      -0.02393742       0.02098901       0.01712626       0.00000000
C       29.02200000       3.92200000     -30.00000000       0.00000000      12.01100000      122        1      122       0.00000000 _ _       0.88949205       0.12886058       0.14946479       0.02109891      -0.04609823       0.00000000
C       29.02200000       2.49500000     -30.00000000       0.00000000      12.01100000      123        1      123       0.00000000 _ _      -0.55970026      -0.22188686       0.05529173       0.02104952       0.01615864       0.00000000
C       27.78700000       1.78200000     -30.00000000       0.00000000      12.01100000      124        1      124       0.00000000 _ _      -0.24910060       0.03234261      -0.64834828       0.02093776       0.01292440       0.00000000
C       27.78700000       4.63400000     -30.00000000       0.00000000      12.01100000      129        1      129       0.00000000 _ _       0.35061217       0.32061255      -0.27984675       0.02099248       0.02353070       0.00000000
C       29.02200000       8.20000000     -30.00000000       0.00000000      12.01100000      130        1      130       0.00000000 _ _      -0.92841257      -1.19475388      -0.26672839       0.02111068      -0.02892679       0.00000000
C       29.02200000       6.77400000     -30.00000000       0.00000000      12.01100000      131        1      131       0.00000000 _ _      -0.09034815       0.94912862       0.37457826       0.02101482      -0.03193781       0.00000000
C       27.78700000       6.06000000     -30.00000000       0.00000000      12.01100000      132        1      132       0.00000000 _ _      -0.18720488       0.51359430      -0.14985792       0.02089317       0.03135933       0.00000000
C       27.78700000       8.91200000     -30.00000000       0.00000000      12.01100000      137        1      137       0.00000000 _ _       0.76797561      -0.28257076      -0.60998486       0.02099748       0.02692471       0.00000000
C       29.02200000      12.47700000     -30.00000000       0.00000000      12.01100000      138        1      138       0.00000000 _ _       0.78376505      -0.11227941       0.04121793       0.02102532       0.01859703       0.00000000
C       29.02200000      11.05100000     -30.00000000       0.00000000      12.01100000      139        1      139       0.00000000 _ _       0.09618523      -0.16237981       0.61092959       0.02106401       0.00701503       0.00000000
C       27.78700000      10.33800000     -30.00000000       0.00000000      12.01100000      140        1      140       0.00000000 _ _       0.55481942       0.61030116       0.17214621       0.02094362       0.00267830       0.00000000
C       27.78700000      13.19100000     -30.00000000       0.00000000      12.01100000      145        1      145       0.00000000 _ _       0.23448568      -0.47115208      -0.00096685       0.02090504      -0.03997128       0.00000000
C       29.02200000      16.75500000     -30.00000000       0.00000000      12.01100000      146        1      146       0.00000000 _ _       0.68877406       0.38865124      -0.54872241       0.02107354       0.01640425       0.00000000
C       29.02200000      15.33000000     -30.00000000       0.00000000      12.01100000      147        1      147       0.00000000 _ _       0.12034747      -0.96134216       2.05640144       0.02103427      -0.04153891       0.00000000
C       27.78700000      14.61600000     -30.00000000       0.00000000      12.01100000      148        1      148       0.00000000 _ _      -0.19910371       1.32922824       0.33115539       0.02091294       0.03499898       0.00000000
C       27.78700000      17.46800000     -30.00000000       0.00000000      12.01100000      153        1      153       0.00000000 _ _      -0.51768299       0.12271605       0.39478019       0.02095486       0.00614916       0.00000000
C       29.02200000      21.03400000     -30.00000000       0.00000000      12.01100000      154        1      154       0.00000000 _ _      -0.36142890      -0.48089439       0.58046257       0.02109767      -0.04610761       0.00000000
C       29.02200000      19.60700000     -30.00000000       0.00000000      12.01100000      155        1      155       0.00000000 _ _      -0.44783901       0.11291873      -0.30850353       0.02105271       0.01729957       0.00000000
C       27.78700000      18.89400000     -30.00000000       0.00000000      12.01100000      156        1      156       0.00000000 _ _       0.25582786      -0.01715689      -0.32485287       0.02093702       0.00370289       0.00000000
C       30.25800000       0.35600000     -30.00000000       0.00000000      12.01100000      161        1      161       0.00000000 _ _      -0.38117293      -0.61391499      -0.04251545      -0.01655436       0.01406105       0.00000000
C       31.49300000       3.92200000     -30.00000000       0.00000000      12.01100000      162        1      162       0.00000000 _ _      -0.58377374       0.03692591      -0.07134786      -0.00400138      -0.04547244       0.00000000
C       31.49300000       2.49500000     -30.00000000       0.00000000      12.01100000      163        1      163       0.00000000 _ _      -0.00143227       0.10846150       0.05834236      -0.00399280       0.01551018       0.00000000
C       30.25800000       1.78200000     -30.00000000       0.00000000      12.01100000      164        1      164       0.00000000 _ _       0.70265488      -0.15924428      -0.19516242      -0.01651682       0.01592826       0.00000000
C       30.25800000       4.63400000     -30.00000000       0.00000000      12.01100000      169        1      169       0.00000000 _ _      -0.70218582       0.01792391       0.23041684      -0.01655579       0.02046128       0.00000000
C       31.49300000       8.20000000     -30.00000000       0.00000000      12.01100000      170        1      170       0.00000000 _ _      -1.21702027       0.13746551      -0.36082732      -0.00400224      -0.02828626       0.00000000
C       31.49300000       6.77400000     -30.00000000       0.00000000      12.01100000      171        1      171       0.00000000 _ _      -0.05501839      -0.60698835      -0.04863997      -0.00398297      -0.03262321       0.00000000
C       30.25800000       6.06000000     -30.00000000       0.00000000      12.01100000      172        1      172       0.00000000 _ _      -0.15688924       0.08573562       0.58736852      -0.01649213       0.03432333       0.00000000
C       30.25800000       8.91200000     -30.00000000       0.00000000      12.01100000      177        1      177       0.00000000 _ _       0.84240276       0.19600370       0.67805109      -0.01656468       0.02385326       0.00000000
C       31.49300000      12.47700000     -30.00000000       0.00000000      12.01100000      178        1      178       0.00000000 _ _      -0.23985232      -0.51008326       0.19759967      -0.00397878       0.01926677       0.00000000
C       31.49300000      11.05100000     -30.00000000       0.00000000      12.01100000      179        1      179       0.00000000 _ _      -0.78587470       0.55254994      -0.35566731      -0.00399370       0.00635983       0.00000000
C       30.25800000      10.33800000     -30.00000000       0.00000000      12.01100000      180        1      180       0.00000000 _ _       0.14038554       0.58999981       0.33361046      -0.01652865       0.00568757       0.00000000
C       30.25800000      13.19100000     -30.00000000       0.00000000      12.01100000      185        1      185       0.00000000 _ _      -1.01930367       0.45430356      -1.04070786      -0.01650250      -0.04290847       0.00000000
C       31.49300000      16.75500000     -30.00000000       0.00000000      12.01100000      186        1      186       0.00000000 _ _      -0.35260615      -0.67851596       0.02214266      -0.00399142       0.01707953       0.00000000
C       31.49300000      15.33000000     -30.00000000       0.00000000      12.01100000      187        1      187       0.00000000 _ _       0.96327700      -0.10072824      -0.04939558      -0.00397781      -0.04223031       0.00000000
C       30.25800000      14.61600000     -30.00000000       0.00000000      12.01100000      188        1      188       0.00000000 _ _      -0.00415317      -0.63893282       0.77978185      -0.01651279       0.03794715       0.00000000
C       30.25800000      17.46800000     -30.00000000       0.00000000      12.01100000      193        1      193       0.00000000 _ _      -0.18108788       1.05136677       0.28447592      -0.01654316       0.00311807       0.00000000
C       31.49300000      21.03400000     -30.00000000       0.00000000      12.01100000      194        1      194       0.00000000 _ _       0.49050819      -0.38530196      -0.30952746      -0.00400412      -0.04548227       0.00000000
C       31.49300000      19.60700000     -30.00000000       0.00000000      12.01100000      195        1      195       0.00000000 _ _       0.71711966       0.67178740      -0.07379993      -0.00399118       0.01665214       0.00000000
C       30.25800000      18.89400000     -30.00000000       0.00000000      12.01100000      196        1      196       0.00000000 _ _      -0.47345996      -1.56842373       0.60485457      -0.01651562       0.00671361       0.00000000
C       32.72800000       0.35600000     -30.00000000       0.00000000      12.01100000      201        1      201       0.00000000 _ _      -0.03505290       0.70912401       0.32647048      -0.00041697       0.01664238       0.00000000
C       33.96300000       3.92200000     -30.00000000       0.00000000      12.01100000      202        1      202       0.00000000 _ _       0.64901679       0.73684826      -0.12774021      -0.00020661      -0.04650820       0.00000000
C       33.96300000       2.49500000     -30.00000000       0.00000000      12.01100000      203        1      203       0.00000000 _ _       0.88228640      -0.47264594       0.48039650      -0.00020609       0.01654168       0.00000000
C       32.72800000       1.78200000     -30.00000000       0.00000000      12.01100000      204        1      204       0.00000000 _ _       0.11822913       1.22835990       0.00686131      -0.00041755       0.01337885       0.00000000
C       32.72800000       4.63400000     -30.00000000       0.00000000      12.01100000      209        1      209       0.00000000 _ _      -0.52568343      -1.33124691       0.04797691      -0.00041774       0.02304173       0.00000000
C       33.96300000       8.20000000     -30.00000000       0.00000000      12.01100000      210        1      210       0.00000000 _ _      -0.10187202       1.18524332       0.09564712      -0.00020845      -0.02932400       0.00000000
C       33.96300000       6.77400000     -30.00000000       0.00000000      12.01100000      211        1      211       0.00000000 _ _      -0.12639569      -1.24075969      -0.13945878      -0.00020619      -0.03159480       0.00000000
C       32.72800000       6.06000000     -30.00000000       0.00000000      12.01100000      212        1      212       0.00000000 _ _      -0.08978815       0.50149602      -0.17419248      -0.00041770       0.03179692       0.00000000
C       32.72800000       8.91200000     -30.00000000       0.00000000      12.01100000      217        1      217       0.00000000 _ _      -0.85654951      -0.18417024       0.74038212      -0.00041809       0.02643730       0.00000000
C       33.96300000      12.47700000     -30.00000000       0.00000000      12.01100000      218        1      218       0.00000000 _ _      -0.02789109       0.86650750      -0.29061431      -0.00020625       0.01823991       0.00000000
C       33.96300000      11.05100000     -30.00000000       0.00000000      12.01100000      219        1      219       0.00000000 _ _       0.80308050       0.01313739      -0.23583193      -0.00020680       0.00738945       0.00000000
C       32.72800000      10.33800000     -30.00000000       0.00000000      12.01100000      220        1      220       0.00000000 _ _       0.17652096       0.55450325      -0.48488575      -0.00041629       0.00313565       0.00000000
C       32.72800000      13.19100000     -30.00000000       0.00000000      12.01100000      225        1      225       0.00000000 _ _      -0.15028137      -0.08990872       0.60456972      -0.00041988      -0.04039818       0.00000000
C       33.96300000      16.75500000     -30.00000000       0.00000000      12.01100000      226        1      226       0.00000000 _ _      -0.65363876       0.55120319       0.82918062      -0.00020758       0.01604961       0.00000000
C       33.96300000      15.33000000     -30.00000000       0.00000000      12.01100000      227        1      227       0.00000000 _ _      -0.54478442       1.16271727      -0.31021424      -0.00020610      -0.04120330       0.00000000
C       32.72800000      14.61600000     -30.00000000       0.00000000      12.01100000      228        1      228       0.00000000 _ _      -0.00712446      -0.80679346      -0.17232794      -0.00041973       0.03543258       0.00000000
C       32.72800000      17.46800000     -30.00000000       0.00000000      12.01100000      233        1      233       0.00000000 _ _      -0.52637651       0.15855316       0.29609927      -0.00041657       0.00568044       0.00000000
C       33.96300000      21.03400000     -30.00000000       0.00000000      12.01100000      234        1      234       0.00000000 _ _      -0.64139729      -1.83246325      -0.64306856      -0.00020645      -0.04651588       0.00000000
C       33.96300000      19.60700000     -30.00000000       0.00000000      12.01100000      235        1      235       0.00000000 _ _      -0.78006935      -0.07753241       0.29830796      -0.00020504       0.01768256       0.00000000
C       32.72800000      18.89400000     -30.00000000       0.00000000      12.01100000      236        1      236       0.00000000 _ _      -0.51094304       0.13308187       0.41901007      -0.00042101       0.00416259       0.00000000
C       35.19800000       0.35600000     -30.00000000       0.00000000      12.01100000      241        1      241       0.00000000 _ _       0.10542086      -0.36255486       2.04389562      -0.00014491       0.01612563       0.00000000
C       36.43300000       3.92200000     -30.00000000       0.00000000      12.01100000      242        1      242       0.00000000 _ _       1.40608501      -1.14807333      -0.09616161      -0.00002203      -0.04657240       0.00000000
C       36.43300000       2.49500000     -30.00000000       0.00000000      12.01100000      243        1      243       0.00000000 _ _      -0.36338801      -0.31570705      -0.53332792      -0.00002163       0.01660450       0.00000000
C       35.19800000       1.78200000     -30.00000000       0.00000000      12.01100000      244        1      244       0.00000000 _ _       0.78755630       0.76159114       0.66551544      -0.00014263       0.01389618       0.00000000
C       35.19800000       4.63400000     -30.00000000       0.00000000      12.01100000      249        1      249       0.00000000 _ _       0.05601541       0.47757261      -0.30697829      -0.00014394       0.02252777       0.00000000
C       36.43300000       8.20000000     -30.00000000       0.00000000      12.01100000      250        1      250       0.00000000 _ _       0.44744718       0.23378372       0.21943911      -0.00002167      -0.02938411       0.00000000
C       36.43300000       6.77400000     -30.00000000       0.00000000      12.01100000      251        1      251       0.00000000 _ _       0.72561861       0.61172781       0.70067350      -0.00002110      -0.03153416       0.00000000
C       35.19800000       6.06000000     -30.00000000       0.00000000      12.01100000      252        1      252       0.00000000 _ _       0.21677245       0.81048007      -0.17808678      -0.00014402       0.03231137       0.00000000
C       35.19800000       8.91200000     -30.00000000       0.00000000      12.01100000      257        1      257       0.00000000 _ _       0.09675674       0.21057893      -0.29495841      -0.00014352       0.02591930       0.00000000
C       36.43300000      12.47700000     -30.00000000       0.00000000      12.01100000      258        1      258       0.00000000 _ _      -0.35677908       0.89714573      -0.03439306      -0.00002037       0.01817977       0.00000000
C       36.43300000      11.05100000     -30.00000000       0.00000000      12.01100000      259        1      259       0.00000000 _ _       0.10180758       0.12211013       0.25628554      -0.00002077       0.00745326       0.00000000
C       35.19800000      10.33800000     -30.00000000       0.00000000      12.01100000      260        1      260       0.00000000 _ _       0.58766414      -0.02531381       0.95747163      -0.00014497       0.00365308       0.00000000
C       35.19800000      13.19100000     -30.00000000       0.00000000      12.01100000      265        1      265       0.00000000 _ _       0.30581901      -0.38239696      -0.10837988      -0.00014253      -0.04091268       0.00000000
C       36.43300000      16.75500000     -30.00000000       0.00000000      12.01100000      266        1      266       0.00000000 _ _       0.17761890      -0.11511510      -0.70563247      -0.00002088       0.01598733       0.00000000
C       36.43300000      15.33000000     -30.00000000       0.00000000      12.01100000      267        1      267       0.00000000 _ _       0.28188477      -0.11336111       0.28725921      -0.00002254      -0.04114249       0.00000000
C       35.19800000      14.61600000     -30.00000000       0.00000000      12.01100000      268        1      268       0.00000000 _ _      -0.06707561      -0.30107850      -0.01629962      -0.00014315       0.03594659       0.00000000
C       35.19800000      17.46800000     -30.00000000       0.00000000      12.01100000      273        1      273       0.00000000 _ _      -0.32061448      -0.05027598       0.42670326      -0.00014421       0.00516309       0.00000000
C       36.43300000      21.03400000     -30.00000000       0.00000000      12.01100000      274        1      274       0.00000000 _ _      -0.07582848      -0.40771991       0.05533809      -0.00002166      -0.04657981       0.00000000
C       36.43300000      19.60700000     -30.00000000       0.00000000      12.01100000      275        1      275       0.00000000 _ _       0.39502011      -0.33565520      -0.17042862      -0.00002024       0.01774602       0.00000000
C       35.19800000      18.89400000     -30.00000000       0.00000000      12.01100000      276        1      276       0.00000000 _ _      -0.05846277      -0.43230753       1.03012481      -0.00014538       0.00467844       0.00000000
C       37.66800000       0.35600000     -30.00000000       0.00000000      12.01100000      281        1      281       0.00000000 _ _      -0.58209288      -0.80105339       0.33912848      -0.00000625       0.01610335       0.00000000
C       38.90300000       3.92200000     -30.00000000       0.00000000      12.01100000      282        1      282       0.00000000 _ _      -0.14188281       0.16043724      -0.79252794      -0.00014928      -0.04663748       0.00000000
C       38.90300000       2.49500000     -30.00000000       0.00000000      12.01100000      283        1      283       0.00000000 _ _      -0.19394271       0.31059536       0.64275291      -0.00014901       0.01667178       0.00000000
C       37.66800000       1.78200000     -30.00000000       0.00000000      12.01100000      284        1      284       0.00000000 _ _       0.03513225      -0.39009772      -0.16109751      -0.00000773       0.01391915       0.00000000
C       37.66800000       4.63400000     -30.00000000       0.00000000      12.01100000      289        1      289       0.00000000 _ _      -0.36057008       0.00544111      -0.57002699      -0.00000621       0.02250400       0.00000000
C       38.90300000       8.20000000     -30.00000000       0.00000000      12.01100000      290        1      290       0.00000000 _ _      -0.44997176      -0.46188721       0.37705405      -0.00014895      -0.02945186       0.00000000
C       38.90300000       6.77400000     -30.00000000       0.00000000      12.01100000      291        1      291       0.00000000 _ _       0.29045083       0.78647613       0.20456252      -0.00014726      -0.03146918       0.00000000
C       37.66800000       6.06000000     -30.00000000       0.00000000      12.01100000      292        1      292       0.00000000 _ _      -0.40046777      -0.08866009       0.14956683      -0.00000783       0.03233531       0.00000000
C       37.66800000       8.91200000     -30.00000000       0.00000000      12.01100000      297        1      297       0.00000000 _ _      -0.47849078      -0.55688784      -0.19397483      -0.00000866       0.02589900       0.00000000
C       38.90300000      12.47700000     -30.00000000       0.00000000      12.01100000      298        1      298       0.00000000 _ _      -0.30826763      -0.24102409       0.05207376      -0.00014773       0.01811523       0.00000000
C       38.90300000      11.05100000     -30.00000000       0.00000000      12.01100000      299        1      299       0.00000000 _ _      -0.56618589      -0.77143167      -0.71510531      -0.00015029       0.00751557       0.00000000
C       37.66800000      10.33800000     -30.00000000       0.00000000      12.01100000      300        1      300       0.00000000 _ _      -0.16466350       0.54346492       0.45406368      -0.00000727       0.00367661       0.00000000
C       37.66800000      13.19100000     -30.00000000       0.00000000      12.01100000      305        1      305       0.00000000 _ _       0.32533982      -1.19244672       0.33658074      -0.00000877      -0.04093514       0.00000000
C       38.90300000      16.75500000     -30.00000000       0.00000000      12.01100000      306        1      306       0.00000000 _ _      -0.45094783      -0.46371537      -0.42704021      -0.00014968       0.01592395       0.00000000
C       38.90300000      15.33000000     -30.00000000       0.00000000      12.01100000      307        1      307       0.00000000 _ _       0.13439697       0.12744436      -0.02169972      -0.00014824      -0.04107895       0.00000000
C       37.66800000      14.61600000     -30.00000000       0.00000000      12.01100000      308        1      308       0.00000000 _ _       0.08861625      -0.35535286       0.09865680      -0.00000792       0.03596818       0.00000000
C       37.66800000      17.46800000     -30.00000000       0.00000000      12.01100000      313        1      313       0.00000000 _ _       0.39982981      -0.82525527      -0.30269628      -0.00000800       0.00514093       0.00000000
C       38.90300000      21.03400000     -30.00000000       0.00000000      12.01100000      314        1      314       0.00000000 _ _      -0.38070099      -0.30221572      -0.26091045      -0.00014900      -0.04664642       0.00000000
C       38.90300000      19.60700000     -30.00000000       0.00000000      12.01100000      315        1      315       0.00000000 _ _       0.87369077       0.55140337       0.51207243      -0.00014889       0.01781099       0.00000000
C       37.66800000      18.89400000     -30.00000000       0.00000000      12.01100000      316        1      316       0.00000000 _ _       0.31989507      -0.15979415       0.14318431      -0.00000622       0.00470153       0.00000000
C        0.61800000      21.74600000     -30.00000000       0.00000000      12.01100000        1        1        1       0.00000000 _ _      -1.58059768       0.04669373      -0.21511804      -0.00030786       0.01546517       0.00000000
C        1.85300000      25.31200000     -30.00000000       0.00000000      12.01100000        2        1        2       0.00000000 _ _      -0.36951492       0.11160190      -0.52890668      -0.00380979      -0.04824953       0.00000000
C        1.85300000      23.88500000     -30.00000000       0.00000000      12.01100000        3        1        3       0.00000000 _ _      -0.35057703      -0.12711010       0.30524153      -0.00379627       0.01828997       0.00000000
C        0.61800000      23.17200000     -30.00000000       0.00000000      12.01100000        4        1        4       0.00000000 _ _      -0.00221535       1.16528877       0.24557941      -0.00030953       0.01447987       0.00000000
C        0.61800000      26.02400000     -30.00000000       0.00000000      12.01100000        9        1        9       0.00000000 _ _      -0.28276393      -0.29556785      -0.04050326      -0.00030735       0.02191910       0.00000000
C        1.85300000      29.59000000     -30.00000000       0.00000000      12.01100000       10        1       10       0.00000000 _ _       0.13708226      -0.64441129       0.24478955      -0.00380668      -0.03108183       0.00000000
C        1.85300000      28.16400000     -30.00000000       0.00000000      12.01100000       11        1       11       0.00000000 _ _       0.85578510       0.16446910      -0.56665453      -0.00378399      -0.02980502       0.00000000
C        0.61800000      27.45000000     -30.00000000       0.00000000      12.01100000       12        1       12       0.00000000 _ _       0.48632363      -1.24504556      -0.42663441      -0.00030980       0.03288267       0.00000000
C        0.61800000      30.30200000     -30.00000000       0.00000000      12.01100000       17        1       17       0.00000000 _ _       0.50492743      -1.24006964      -0.72409702      -0.00030768       0.02531298       0.00000000
C        1.85300000      33.86700000     -30.00000000       0.00000000      12.01100000       18        1       18       0.00000000 _ _      -0.98159740       0.03172574      -0.36163043      -0.00378435       0.01656159       0.00000000
C        1.85300000      32.44100000     -30.00000000       0.00000000      12.01100000       19        1       19       0.00000000 _ _      -0.69860041       0.16238246      -0.36824776      -0.00379799       0.00904184       0.00000000
C        0.61800000      31.72800000     -30.00000000       0.00000000      12.01100000       20        1       20       0.00000000 _ _       0.56031086       0.60129493      -0.18066418      -0.00030867       0.00430477       0.00000000
C        0.61800000      34.58100000     -30.00000000       0.00000000      12.01100000       25        1       25       0.00000000 _ _      -0.21044341       0.67147188      -1.04037889      -0.00031237      -0.04155077       0.00000000
C        1.85300000      38.14500000     -30.00000000       0.00000000      12.01100000       26        1       26       0.00000000 _ _      -0.47589256       0.47566716      -0.81361643      -0.00379647       0.01430395       0.00000000
C        1.85300000      36.72000000     -30.00000000       0.00000000      12.01100000       27        1       27       0.00000000 _ _       0.59877504       0.05882569       0.73593614      -0.00378262      -0.03948968       0.00000000
C        0.61800000      36.00600000     -30.00000000       0.00000000      12.01100000       28        1       28       0.00000000 _ _       0.59269589      -0.61227341      -0.02962610      -0.00031323       0.03659087       0.00000000
C        0.61800000      38.85800000     -30.00000000       0.00000000      12.01100000       33        1       33       0.00000000 _ _       0.60384600       0.46331419       0.06905572      -0.00030802       0.00455302       0.00000000
C        1.85300000      42.42400000     -30.00000000       0.00000000      12.01100000       34        1       34       0.00000000 _ _       0.34530347      -0.98840909      -1.06211947      -0.00381027      -0.04826155       0.00000000
C        1.85300000      40.99700000     -30.00000000       0.00000000      12.01100000       35        1       35       0.00000000 _ _      -0.67937492      -0.19986876       0.71534598      -0.00380005       0.01937460       0.00000000
C        0.61800000      40.28400000     -30.00000000       0.00000000      12.01100000       36        1       36       0.00000000 _ _       0.37058873       0.07122746      -0.08541877      -0.00031036       0.00527884       0.00000000
C        3.08800000      21.74600000     -30.00000000       0.00000000      12.01100000       41        1       41       0.00000000 _ _       0.50870342       0.19453183       0.40160553      -0.01307212       0.01652575       0.00000000
C        4.32200000      25.31200000     -30.00000000       0.00000000      12.01100000       42        1       42       0.00000000 _ _      -0.07557934       0.32628127      -0.60502263       0.03369410      -0.04603791       0.00000000
C        4.32200000      23.88500000     -30.00000000       0.00000000      12.01100000       43        1       43       0.00000000 _ _       0.12869811       0.58698031       0.82872589       0.03361123       0.01608244       0.00000000
C        3.08800000      23.17200000     -30.00000000       0.00000000      12.01100000       44        1       44       0.00000000 _ _       0.41593750      -0.91038838      -0.49574658      -0.01304445       0.01344875       0.00000000
C        3.08800000      26.02400000     -30.00000000       0.00000000      12.01100000       49        1       49       0.00000000 _ _      -1.13063724       0.00512282      -0.67825904      -0.01307030       0.02298039       0.00000000
C        4.32200000      29.59000000     -30.00000000       0.00000000      12.01100000       50        1       50       0.00000000 _ _      -0.62591412      -0.55915756       0.19055648       0.03371748      -0.02887711       0.00000000
C        4.32200000      28.16400000     -30.00000000       0.00000000      12.01100000       51        1       51       0.00000000 _ _      -0.76213392       0.61843927       0.21950356       0.03356159      -0.03200861       0.00000000
C        3.08800000      27.45000000     -30.00000000       0.00000000      12.01100000       52        1       52       0.00000000 _ _      -0.54940402      -0.07355246      -0.42745341      -0.01302901       0.03186973       0.00000000
C        3.08800000      30.30200000     -30.00000000       0.00000000      12.01100000       57        1       57       0.00000000 _ _       0.75234244      -0.44212292      -0.87709577      -0.01308772       0.02637844       0.00000000
C        4.32200000      33.86700000     -30.00000000       0.00000000      12.01100000       58        1       58       0.00000000 _ _       0.20527116       0.62733965       0.56939005       0.03358977       0.01876123       0.00000000
C        4.32200000      32.44100000     -30.00000000       0.00000000      12.01100000       59        1       59       0.00000000 _ _       0.36383956       0.01529819      -0.62455630       0.03363832       0.00684151       0.00000000
C        3.08800000      31.72800000     -30.00000000       0.00000000      12.01100000       60        1       60       0.00000000 _ _       0.13830530       0.39204923       0.16866130      -0.01305947       0.00326749       0.00000000
C        3.08800000      34.58100000     -30.00000000       0.00000000      12.01100000       65        1       65       0.00000000 _ _       0.71542819      -0.60845533      -0.23163151      -0.01303741      -0.04054887       0.00000000
C        4.32200000      38.14500000     -30.00000000       0.00000000      12.01100000       66        1       66       0.00000000 _ _      -0.51543358      -0.69144770       0.32773189       0.03365663       0.01650305       0.00000000
C        4.32200000      36.72000000     -30.00000000       0.00000000      12.01100000       67        1       67       0.00000000 _ _      -0.25541826       0.42404395       0.33713070       0.03360785      -0.04168790       0.00000000
C        3.08800000      36.00600000     -30.00000000       0.00000000      12.01100000       68        1       68       0.00000000 _ _       0.50489915      -0.42806077       0.31052015      -0.01305066       0.03558339       0.00000000
C        3.08800000      38.85800000     -30.00000000       0.00000000      12.01100000       73        1       73       0.00000000 _ _       1.15836501      -0.11962537      -0.46380987      -0.01307198       0.00560155       0.00000000
C        4.32200000      42.42400000     -30.00000000       0.00000000      12.01100000       74        1       74       0.00000000 _ _      -0.35583405       1.19425101      -0.44699665       0.03369363      -0.04605247       0.00000000
C        4.32200000      40.99700000     -30.00000000       0.00000000      12.01100000       75        1       75       0.00000000 _ _      -0.18289982      -0.02875924       0.08025969       0.03362339       0.01716139       0.00000000
C        3.08800000      40.28400000     -30.00000000       0.00000000      12.01100000       76        1       76       0.00000000 _ _      -0.18408379      -1.53609456      -0.19318848      -0.01304119       0.00424029       0.00000000
C        5.55800000      21.74600000     -30.00000000       0.00000000      12.01100000       81        1       81       0.00000000 _ _       0.37543764       0.28282242       0.28644036      -0.01680872       0.01679256       0.00000000
C        6.79300000      25.31200000     -30.00000000       0.00000000      12.01100000       82        1       82       0.00000000 _ _      -0.15201959      -0.56365085      -0.14157558      -0.02029392      -0.04698815       0.00000000
C        6.79300000      23.88500000     -30.00000000       0.00000000      12.01100000       83        1       83       0.00000000 _ _       0.13724343       0.60676641      -1.63157190      -0.02023370       0.01700499       0.00000000
C        5.55800000      23.17200000     -30.00000000       0.00000000      12.01100000       84        1       84       0.00000000 _ _      -1.03973963      -0.09394755       0.32801224      -0.01676969       0.01313108       0.00000000
C        5.55800000      26.02400000     -30.00000000       0.00000000      12.01100000       89        1       89       0.00000000 _ _       0.76879289       0.14776081       0.44183993      -0.01680759       0.02323367       0.00000000
C        6.79300000      29.59000000     -30.00000000       0.00000000      12.01100000       90        1       90       0.00000000 _ _       1.10974487      -0.70525766      -1.09861757      -0.02029903      -0.02980914       0.00000000
C        6.79300000      28.16400000     -30.00000000       0.00000000      12.01100000       91        1       91       0.00000000 _ _       0.14209593       0.01086305       0.07462098      -0.02019250      -0.03112516       0.00000000
C        5.55800000      27.45000000     -30.00000000       0.00000000      12.01100000       92        1       92       0.00000000 _ _      -0.29995522      -0.99502434      -0.86288604      -0.01674889       0.03153260       0.00000000
C        5.55800000      30.30200000     -30.00000000       0.00000000      12.01100000       97        1       97       0.00000000 _ _      -0.59903757      -0.54506471       0.39091949      -0.01681886       0.02662898       0.00000000
C        6.79300000      33.86700000     -30.00000000       0.00000000      12.01100000       98        1       98       0.00000000 _ _       1.28613086      -0.03502342      -0.17058200      -0.02020733       0.01786796       0.00000000
C        6.79300000      32.44100000     -30.00000000       0.00000000      12.01100000       99        1       99       0.00000000 _ _      -0.77136490       0.37446614       0.45521517      -0.02024351       0.00775427       0.00000000
C        5.55800000      31.72800000     -30.00000000       0.00000000      12.01100000      100        1      100       0.00000000 _ _       0.37673239       0.09892145      -0.13173211      -0.01678381       0.00296479       0.00000000
C        5.55800000      34.58100000     -30.00000000       0.00000000      12.01100000      105        1      105       0.00000000 _ _      -0.57614011       1.01613773       0.14049352      -0.01675736      -0.04020002       0.00000000
C        6.79300000      38.14500000     -30.00000000       0.00000000      12.01100000      106        1      106       0.00000000 _ _      -0.95770583      -0.54921992      -0.14399587      -0.02024863       0.01561055       0.00000000
C        6.79300000      36.72000000     -30.00000000       0.00000000      12.01100000      107        1      107       0.00000000 _ _      -0.09479436       0.36304375      -1.26378532      -0.02021109      -0.04081467       0.00000000
C        5.55800000      36.00600000     -30.00000000       0.00000000      12.01100000      108        1      108       0.00000000 _ _      -0.27078195      -0.39030699       0.30579115      -0.01677095       0.03524398       0.00000000
C        5.55800000      38.85800000     -30.00000000       0.00000000      12.01100000      113        1      113       0.00000000 _ _      -0.48135986      -0.01950094      -0.53055617      -0.01679584       0.00587685       0.00000000
C        6.79300000      42.42400000     -30.00000000       0.00000000      12.01100000      114        1      114       0.00000000 _ _      -0.93886509      -0.22118566       0.10497036      -0.02028836      -0.04700070       0.00000000
C        6.79300000      40.99700000     -30.00000000       0.00000000      12.01100000      115        1      115       0.00000000 _ _      -0.05852555       0.17890395       0.61681058      -0.02023855       0.01808625       0.00000000
C        5.55800000      40.28400000     -30.00000000       0.00000000      12.01100000      116        1      116       0.00000000 _ _       0.17458099      -0.42941023      -0.35355590      -0.01677233       0.00394432       0.00000000
C        8.02700000      21.74600000     -30.00000000       0.00000000      12.01100000      121        1      121       0.00000000 _ _       0.23055088      -0.25111099      -0.46648698       0.02101774       0.01707526       0.00000000
C        9.26200000      25.31200000     -30.00000000       0.00000000      12.01100000      122        1      122       0.00000000 _ _      -0.12515937       0.62778656      -0.21412184       0.02108108      -0.04609296       0.00000000
C        9.26200000      23.88500000     -30.00000000       0.00000000      12.01100000      123        1      123       0.00000000 _ _       0.59789295      -0.37734438       0.08845801       0.02103349       0.01616652       0.00000000
C        8.02700000      23.17200000     -30.00000000       0.00000000      12.01100000      124        1      124       0.00000000 _ _       0.49964052      -0.90289752       0.40457592       0.02096195       0.01289806       0.00000000
C        8.02700000      26.02400000     -30.00000000       0.00000000      12.01100000      129        1      129       0.00000000 _ _       0.80772004       0.82833262       0.45916696       0.02102144       0.02353076       0.00000000
C        9.26200000      29.59000000     -30.00000000       0.00000000      12.01100000      130        1      130       0.00000000 _ _      -0.21190368      -0.18184498       0.15520761       0.02109351      -0.02894319       0.00000000
C        9.26200000      28.16400000     -30.00000000       0.00000000      12.01100000      131        1      131       0.00000000 _ _      -0.32143673       0.39053163       0.08959396       0.02099856      -0.03188103       0.00000000
C        8.02700000      27.45000000     -30.00000000       0.00000000      12.01100000      132        1      132       0.00000000 _ _       0.14952426      -0.31430764       0.07979415       0.02092085       0.03131928       0.00000000
C        8.02700000      30.30200000     -30.00000000       0.00000000      12.01100000      137        1      137       0.00000000 _ _      -0.50698056      -0.13945246       0.44943651       0.02102445       0.02693006       0.00000000
C        9.26200000      33.86700000     -30.00000000       0.00000000      12.01100000      138        1      138       0.00000000 _ _       0.39004864       0.49610966       0.03850159       0.02100755       0.01864703       0.00000000
C        9.26200000      32.44100000     -30.00000000       0.00000000      12.01100000      139        1      139       0.00000000 _ _      -0.53851514       0.21538014      -0.12150510       0.02104651       0.00692965       0.00000000
C        8.02700000      31.72800000     -30.00000000       0.00000000      12.01100000      140        1      140       0.00000000 _ _       0.33309750      -0.21145661       0.68826307       0.02097118       0.00271797       0.00000000
C        8.02700000      34.58100000     -30.00000000       0.00000000      12.01100000      145        1      145       0.00000000 _ _       0.04737819      -0.35551357       0.11993083       0.02093348      -0.04000223       0.00000000
C        9.26200000      38.14500000     -30.00000000       0.00000000      12.01100000      146        1      146       0.00000000 _ _      -0.38313801       0.46367135      -0.07573007       0.02105581       0.01639308       0.00000000
C        9.26200000      36.72000000     -30.00000000       0.00000000      12.01100000      147        1      147       0.00000000 _ _      -0.10792329       0.07720122      -0.47878254       0.02101775      -0.04155198       0.00000000
C        8.02700000      36.00600000     -30.00000000       0.00000000      12.01100000      148        1      148       0.00000000 _ _       0.37224292      -0.35876514      -0.26175838       0.02094072       0.03503727       0.00000000
C        8.02700000      38.85800000     -30.00000000       0.00000000      12.01100000      153        1      153       0.00000000 _ _      -0.28602557       0.21990989      -0.21062632       0.02098152       0.00614925       0.00000000
C        9.26200000      42.42400000     -30.00000000       0.00000000      12.01100000      154        1      154       0.00000000 _ _      -0.27149115      -0.54678191       1.46439121       0.02108156      -0.04610510       0.00000000
C        9.26200000      40.99700000     -30.00000000       0.00000000      12.01100000      155        1      155       0.00000000 _ _       0.37106583       0.60645669      -0.50639219       0.02103506       0.01724789       0.00000000
C        8.02700000      40.28400000     -30.00000000       0.00000000      12.01100000      156        1      156       0.00000000 _ _       0.29038804       0.36578476      -0.41868475       0.02096302       0.00369099       0.00000000
C       10.49800000      21.74600000     -30.00000000       0.00000000      12.01100000      161        1      161       0.00000000 _ _      -0.30745926      -0.22684270       0.43102136      -0.01657612       0.01401338       0.00000000
C       11.73300000      25.31200000     -30.00000000       0.00000000      12.01100000      162        1      162       0.00000000 _ _       0.44753810      -0.74089663      -0.22538645      -0.00399115      -0.04546779       0.00000000
C       11.73300000      23.88500000     -30.00000000       0.00000000      12.01100000      163        1      163       0.00000000 _ _       0.11377220       0.07900381       0.32088292      -0.00398052       0.01551921       0.00000000
C       10.49800000      23.17200000     -30.00000000       0.00000000      12.01100000      164        1      164       0.00000000 _ _       1.37316716       0.85981648       0.18443579      -0.01653729       0.01589978       0.00000000
C       10.49800000      26.02400000     -30.00000000       0.00000000      12.01100000      169        1      169       0.00000000 _ _      -0.55322226       0.17190531       0.31321900      -0.01657547       0.02046172       0.00000000
C       11.73300000      29.59000000     -30.00000000       0.00000000      12.01100000      170        1      170       0.00000000 _ _      -0.52446782       0.86811111      -0.77071408      -0.00399105      -0.02830411       0.00000000
C       11.73300000      28.16400000     -30.00000000       0.00000000      12.01100000      171        1      171       0.00000000 _ _       1.29148719      -0.10055829      -1.18008357      -0.00396896      -0.03256507       0.00000000
C       10.49800000      27.45000000     -30.00000000       0.00000000      12.01100000      172        1      172       0.00000000 _ _      -0.46964329      -0.56971627       0.56901343      -0.01651379       0.03428357       0.00000000
C       10.49800000      30.30200000     -30.00000000       0.00000000      12.01100000      177        1      177       0.00000000 _ _       0.31390391      -0.11061921       0.08721477      -0.01658553       0.02386035       0.00000000
C       11.73300000      33.86700000     -30.00000000       0.00000000      12.01100000      178        1      178       0.00000000 _ _       0.20246747       0.63235646       0.84357153      -0.00396606       0.01931664       0.00000000
C       11.73300000      32.44100000     -30.00000000       0.00000000      12.01100000      179        1      179       0.00000000 _ _      -0.55998696       0.16018980       0.63492909      -0.00398141       0.00627885       0.00000000
C       10.49800000      31.72800000     -30.00000000       0.00000000      12.01100000      180        1      180       0.00000000 _ _       0.03548394      -1.29621626       0.09905367      -0.01655089       0.00572494       0.00000000
C       10.49800000      34.58100000     -30.00000000       0.00000000      12.01100000      185        1      185       0.00000000 _ _       0.33185565      -0.00752378       0.40222881      -0.01652111      -0.04293831       0.00000000
C       11.73300000      38.14500000     -30.00000000       0.00000000      12.01100000      186        1      186       0.00000000 _ _       0.36255201       0.55122561       0.59924947      -0.00398051       0.01706764       0.00000000
C       11.73300000      36.72000000     -30.00000000       0.00000000      12.01100000      187        1      187       0.00000000 _ _      -0.92664514       0.59925679      -0.22163990      -0.00396559      -0.04224524       0.00000000
C       10.49800000      36.00600000     -30.00000000       0.00000000      12.01100000      188        1      188       0.00000000 _ _       0.03842898       0.01689077       0.85306386      -0.01653405       0.03798398       0.00000000
C       10.49800000      38.85800000     -30.00000000       0.00000000      12.01100000      193        1      193       0.00000000 _ _      -0.83820307      -0.42639166       0.71693304      -0.01656390       0.00311923       0.00000000
C       11.73300000      42.42400000     -30.00000000       0.00000000      12.01100000      194        1      194       0.00000000 _ _      -0.26232147      -1.17636893       0.19983546      -0.00399306      -0.04548199       0.00000000
C       11.73300000      40.99700000     -30.00000000       0.00000000      12.01100000      195        1      195       0.00000000 _ _       0.57280512      -0.34981169       0.14939675      -0.00397905       0.01660070       0.00000000
C       10.49800000      40.28400000     -30.00000000       0.00000000      12.01100000      196        1      196       0.00000000 _ _      -0.09383721       0.15664965       1.39194226      -0.01653700       0.00669941       0.00000000
C       12.96800000      21.74600000     -30.00000000       0.00000000      12.01100000      201        1      201       0.00000000 _ _       0.14273731      -0.22505187       0.88441563      -0.00043068       0.01660131       0.00000000
C       14.20300000      25.31200000     -30.00000000       0.00000000      12.01100000      202        1      202       0.00000000 _ _      -1.46284370       0.12728240       0.91708806      -0.00019098      -0.04649998       0.00000000
C       14.20300000      23.88500000     -30.00000000       0.00000000      12.01100000      203        1      203       0.00000000 _ _       0.07169766      -0.59769158       0.54729812      -0.00019043       0.01654590       0.00000000
C       12.96800000      23.17200000     -30.00000000       0.00000000      12.01100000      204        1      204       0.00000000 _ _       0.48399641       0.46965523      -0.03362058      -0.00043166       0.01334334       0.00000000
C       12.96800000      26.02400000     -30.00000000       0.00000000      12.01100000      209        1      209       0.00000000 _ _       0.00396145       0.53063933      -1.00945042      -0.00043168       0.02304945       0.00000000
C       14.20300000      29.59000000     -30.00000000       0.00000000      12.01100000      210        1      210       0.00000000 _ _       1.07349078       0.10657680      -0.33288951      -0.00019110      -0.02933628       0.00000000
C       14.20300000      28.16400000     -30.00000000       0.00000000      12.01100000      211        1      211       0.00000000 _ _       0.92444307       0.29651761       0.03166017      -0.00019114      -0.03154036       0.00000000
C       12.96800000      27.45000000     -30.00000000       0.00000000      12.01100000      212        1      212       0.00000000 _ _       0.34858329       0.49383483      -0.15851599      -0.00043203       0.03175074       0.00000000
C       12.96800000      30.30200000     -30.00000000       0.00000000      12.01100000      217        1      217       0.00000000 _ _      -0.39376320      -0.17095416       0.09219835      -0.00043210       0.02644907       0.00000000
C       14.20300000      33.86700000     -30.00000000       0.00000000      12.01100000      218        1      218       0.00000000 _ _       0.58049157       0.44785485       0.74546415      -0.00019039       0.01829627       0.00000000
C       14.20300000      32.44100000     -30.00000000       0.00000000      12.01100000      219        1      219       0.00000000 _ _       0.03517948       0.02575942      -0.46353766      -0.00019020       0.00730218       0.00000000
C       12.96800000      31.72800000     -30.00000000       0.00000000      12.01100000      220        1      220       0.00000000 _ _      -0.03542417       0.49411843       0.40487796      -0.00043136       0.00316657       0.00000000
C       12.96800000      34.58100000     -30.00000000       0.00000000      12.01100000      225        1      225       0.00000000 _ _      -0.08883065      -0.02094309       0.49727515      -0.00043472      -0.04042261       0.00000000
C       14.20300000      38.14500000     -30.00000000       0.00000000      12.01100000      226        1      226       0.00000000 _ _       0.33549340      -0.76777337      -0.47963299      -0.00019264       0.01604016       0.00000000
C       14.20300000      36.72000000     -30.00000000       0.00000000      12.01100000      227        1      227       0.00000000 _ _       0.38299030      -0.06294282       0.74067619      -0.00019058      -0.04121983       0.00000000
C       12.96800000      36.00600000     -30.00000000       0.00000000      12.01100000      228        1      228       0.00000000 _ _       0.13894686      -0.62385223       1.24356640      -0.00043405       0.03546420       0.00000000
C       12.96800000      38.85800000     -30.00000000       0.00000000      12.01100000      233        1      233       0.00000000 _ _       0.45483300       0.75179272       0.41850527      -0.00042920       0.00568685       0.00000000
C       14.20300000      42.42400000     -30.00000000       0.00000000      12.01100000      234        1      234       0.00000000 _ _      -0.41112160      -0.88782112      -1.06414376      -0.00018930      -0.04651222       0.00000000
C       14.20300000      40.99700000     -30.00000000       0.00000000      12.01100000      235        1      235       0.00000000 _ _       0.43832552       0.46584737      -0.64632654      -0.00019002       0.01762778       0.00000000
C       12.96800000      40.28400000     -30.00000000       0.00000000      12.01100000      236        1      236       0.00000000 _ _       0.22841499      -0.39446852      -0.45056289      -0.00043392       0.00414368       0.00000000
C       15.43800000      21.74600000     -30.00000000       0.00000000      12.01100000      241        1      241       0.00000000 _ _       0.80871863       0.21984589       1.13713925      -0.00005943       0.01607388       0.00000000
C       16.67300000      25.31200000     -30.00000000       0.00000000      12.01100000      242        1      242       0.00000000 _ _       0.01461335       0.30517882       0.01144413      -0.00008834      -0.04656358       0.00000000
C       16.67300000      23.88500000     -30.00000000       0.00000000      12.01100000      243        1      243       0.00000000 _ _       0.04207554       0.46735097      -0.23804084      -0.00008978       0.01660756       0.00000000
C       15.43800000      23.17200000     -30.00000000       0.00000000      12.01100000      244        1      244       0.00000000 _ _      -0.56467701      -0.10322606      -1.08587524      -0.00005790       0.01387087       0.00000000
C       15.43800000      26.02400000     -30.00000000       0.00000000      12.01100000      249        1      249       0.00000000 _ _       0.20469984       0.53754696      -1.05297496      -0.00005975       0.02252404       0.00000000
C       16.67300000      29.59000000     -30.00000000       0.00000000      12.01100000      250        1      250       0.00000000 _ _       0.71261900       0.62449501      -0.15030954      -0.00009098      -0.02939869       0.00000000
C       16.67300000      28.16400000     -30.00000000       0.00000000      12.01100000      251        1      251       0.00000000 _ _       0.39580302       0.95818277      -0.36172340      -0.00008969      -0.03148221       0.00000000
C       15.43800000      27.45000000     -30.00000000       0.00000000      12.01100000      252        1      252       0.00000000 _ _       0.68782137       0.18325347      -0.67832205      -0.00005783       0.03227739       0.00000000
C       15.43800000      30.30200000     -30.00000000       0.00000000      12.01100000      257        1      257       0.00000000 _ _      -0.08084486      -0.04635267       0.09379476      -0.00005941       0.02592263       0.00000000
C       16.67300000      33.86700000     -30.00000000       0.00000000      12.01100000      258        1      258       0.00000000 _ _       0.79936668       0.32558746      -0.40632064      -0.00008940       0.01823487       0.00000000
C       16.67300000      32.44100000     -30.00000000       0.00000000      12.01100000      259        1      259       0.00000000 _ _       0.61759117       0.34064148      -0.65073065      -0.00008980       0.00736494       0.00000000
C       15.43800000      31.72800000     -30.00000000       0.00000000      12.01100000      260        1      260       0.00000000 _ _      -0.95979729       0.15062140      -0.26754124      -0.00005884       0.00369555       0.00000000
C       15.43800000      34.58100000     -30.00000000       0.00000000      12.01100000      265        1      265       0.00000000 _ _      -0.55292632       0.58175809      -0.95199696      -0.00005844      -0.04094708       0.00000000
C       16.67300000      38.14500000     -30.00000000       0.00000000      12.01100000      266        1      266       0.00000000 _ _      -1.25975629       0.53032871      -1.36446340      -0.00008928       0.01597923       0.00000000
C       16.67300000      36.72000000     -30.00000000       0.00000000      12.01100000      267        1      267       0.00000000 _ _       0.43797831       0.46731967       0.16935160      -0.00008906      -0.04116201       0.00000000
C       15.43800000      36.00600000     -30.00000000       0.00000000      12.01100000      268        1      268       0.00000000 _ _      -0.73594818       0.11451843       1.19649751      -0.00005909       0.03598744       0.00000000
C       15.43800000      38.85800000     -30.00000000       0.00000000      12.01100000      273        1      273       0.00000000 _ _       0.68503507      -0.65640897      -0.25675921      -0.00005840       0.00516112       0.00000000
C       16.67300000      42.42400000     -30.00000000       0.00000000      12.01100000      274        1      274       0.00000000 _ _      -0.04868169       0.92901844      -0.57677764      -0.00008993      -0.04657592       0.00000000
C       16.67300000      40.99700000     -30.00000000       0.00000000      12.01100000      275        1      275       0.00000000 _ _      -0.20633066       1.37122275       0.53415266      -0.00008956       0.01768864       0.00000000
C       15.43800000      40.28400000     -30.00000000       0.00000000      12.01100000      276        1      276       0.00000000 _ _      -0.45899140       0.57845496      -0.49750053      -0.00005810       0.00467035       0.00000000
C       17.90800000      21.74600000     -30.00000000       0.00000000      12.01100000      281        1      281       0.00000000 _ _      -0.39118137      -0.17273399       0.20887073      -0.00005498       0.01605519       0.00000000
C       19.14300000      25.31200000     -30.00000000       0.00000000      12.01100000      282        1      282       0.00000000 _ _       0.40166081       0.73043794       0.11026771      -0.00011997      -0.04663438       0.00000000
C       19.14300000      23.88500000     -30.00000000       0.00000000      12.01100000      283        1      283       0.00000000 _ _      -0.30564451      -0.69360055      -0.12064002      -0.00011686       0.01667891       0.00000000
C       17.90800000      23.17200000     -30.00000000       0.00000000      12.01100000      284        1      284       0.00000000 _ _      -0.56329978       0.56629672       0.44473667      -0.00005480       0.01389177       0.00000000
C       17.90800000      26.02400000     -30.00000000       0.00000000      12.01100000      289        1      289       0.00000000 _ _      -1.43652019      -0.23947063      -0.55620310      -0.00005477       0.02250376       0.00000000
C       19.14300000      29.59000000     -30.00000000       0.00000000      12.01100000      290        1      290       0.00000000 _ _       0.00609532      -0.03192247       0.78562617      -0.00012039      -0.02947059       0.00000000
C       19.14300000      28.16400000     -30.00000000       0.00000000      12.01100000      291        1      291       0.00000000 _ _      -0.83644200      -0.10362651       1.30347466      -0.00011707      -0.03141071       0.00000000
C       17.90800000      27.45000000     -30.00000000       0.00000000      12.01100000      292        1      292       0.00000000 _ _      -0.15916740       1.31904077       0.53265448      -0.00005494       0.03229774       0.00000000
C       17.90800000      30.30200000     -30.00000000       0.00000000      12.01100000      297        1      297       0.00000000 _ _       0.68072357      -0.25669471      -0.30430548      -0.00005358       0.02590320       0.00000000
C       19.14300000      33.86700000     -30.00000000       0.00000000      12.01100000      298        1      298       0.00000000 _ _      -0.02520148       0.02946473      -1.38349736      -0.00011625       0.01816569       0.00000000
C       19.14300000      32.44100000     -30.00000000       0.00000000      12.01100000      299        1      299       0.00000000 _ _      -0.07851452       1.18596400       0.30117607      -0.00011905       0.00743637       0.00000000
C       17.90800000      31.72800000     -30.00000000       0.00000000      12.01100000      300        1      300       0.00000000 _ _       0.97785724      -0.02635064       0.13425499      -0.00005517       0.00371440       0.00000000
C       17.90800000      34.58100000     -30.00000000       0.00000000      12.01100000      305        1      305       0.00000000 _ _       0.15232948      -0.17204197      -0.36012559      -0.00005493      -0.04096866       0.00000000
C       19.14300000      38.14500000     -30.00000000       0.00000000      12.01100000      306        1      306       0.00000000 _ _      -0.37437956       0.06894856      -0.90475926      -0.00011824       0.01590974       0.00000000
C       19.14300000      36.72000000     -30.00000000       0.00000000      12.01100000      307        1      307       0.00000000 _ _       0.51835135      -0.68287693      -1.18804678      -0.00011640      -0.04109148       0.00000000
C       17.90800000      36.00600000     -30.00000000       0.00000000      12.01100000      308        1      308       0.00000000 _ _      -0.91485549      -0.28293424      -0.61673464      -0.00005694       0.03600743       0.00000000
C       17.90800000      38.85800000     -30.00000000       0.00000000      12.01100000      313        1      313       0.00000000 _ _       0.51429702       0.35292108      -0.08341834      -0.00005626       0.00513970       0.00000000
C       19.14300000      42.42400000     -30.00000000       0.00000000      12.01100000      314        1      314       0.00000000 _ _      -0.02805437       0.29081643       0.32815435      -0.00011786      -0.04664894       0.00000000
C       19.14300000      40.99700000     -30.00000000       0.00000000      12.01100000      315        1      315       0.00000000 _ _       0.70184417       0.17026125       0.33074983      -0.00011745       0.01776146       0.00000000
C       17.90800000      40.28400000     -30.00000000       0.00000000      12.01100000      316        1      316       0.00000000 _ _       0.12123054       0.00737853       0.48878063      -0.00005527       0.00469126       0.00000000
C       20.37800000      21.74600000     -30.00000000       0.00000000      12.01100000        1        1        1       0.00000000 _ _      -0.39005554       0.58329278      -0.60750373      -0.00029757       0.01546884       0.00000000
C       21.61300000      25.31200000     -30.00000000       0.00000000      12.01100000        2        1        2       0.00000000 _ _       0.30406302       0.04327207      -0.09078655      -0.00383453      -0.04825031       0.00000000
C       21.61300000      23.88500000     -30.00000000       0.00000000      12.01100000        3        1        3       0.00000000 _ _       0.21118600       0.04681148       0.12302498      -0.00382165       0.01829007       0.00000000
C       20.37800000      23.17200000     -30.00000000       0.00000000      12.01100000        4        1        4       0.00000000 _ _       0.39972523       0.57031858       0.08733378      -0.00029874       0.01447803       0.00000000
C       20.37800000      26.02400000     -30.00000000       0.00000000      12.01100000        9        1        9       0.00000000 _ _       0.21198605      -0.73563074      -1.02658442      -0.00029579       0.02192010       0.00000000
C       21.61300000      29.59000000     -30.00000000       0.00000000      12.01100000       10        1       10       0.00000000 _ _       0.19864866      -0.51303258      -0.88771554      -0.00383153      -0.03108217       0.00000000
C       21.61300000      28.16400000     -30.00000000       0.00000000      12.01100000       11        1       11       0.00000000 _ _      -0.28866375       0.90081704      -1.06419980      -0.00380782      -0.02980727       0.00000000
C       20.37800000      27.45000000     -30.00000000       0.00000000      12.01100000       12        1       12       0.00000000 _ _      -0.38941647      -0.04487841      -0.30160231      -0.00029925       0.03288250       0.00000000
C       20.37800000      30.30200000     -30.00000000       0.00000000      12.01100000       17        1       17       0.00000000 _ _      -0.09106099       0.31127285       1.15814370      -0.00029664       0.02531764       0.00000000
C       21.61300000      33.86700000     -30.00000000       0.00000000      12.01100000       18        1       18       0.00000000 _ _      -0.18572506       0.46966154      -0.22735708      -0.00381002       0.01656504       0.00000000
C       21.61300000      32.44100000     -30.00000000       0.00000000      12.01100000       19        1       19       0.00000000 _ _       0.25132931       0.71316481      -0.95629226      -0.00382040       0.00903924       0.00000000
C       20.37800000      31.72800000     -30.00000000       0.00000000      12.01100000       20        1       20       0.00000000 _ _       0.31614250       0.10268015       0.32097542      -0.00029580       0.00430200       0.00000000
C       20.37800000      34.58100000     -30.00000000       0.00000000      12.01100000       25        1       25       0.00000000 _ _      -0.28439172      -0.47274777      -0.95434442      -0.00030006      -0.04154841       0.00000000
C       21.61300000      38.14500000     -30.00000000       0.00000000      12.01100000       26        1       26       0.00000000 _ _      -0.24243344       0.34420758       0.16295384      -0.00381841       0.01430496       0.00000000
C       21.61300000      36.72000000     -30.00000000       0.00000000      12.01100000       27        1       27       0.00000000 _ _       0.00487992       0.34322263       0.25633485      -0.00380477      -0.03949256       0.00000000
C       20.37800000      36.00600000     -30.00000000       0.00000000      12.01100000       28        1       28       0.00000000 _ _      -0.91781900       0.12913271      -0.06753067      -0.00030099       0.03658744       0.00000000
C       20.37800000      38.85800000     -30.00000000       0.00000000      12.01100000       33        1       33       0.00000000 _ _      -0.29794135       0.89138407      -0.48905338      -0.00029647       0.00455626       0.00000000
C       21.61300000      42.42400000     -30.00000000       0.00000000      12.01100000       34        1       34       0.00000000 _ _       0.45211454       0.29298236      -0.03191225      -0.00383519      -0.04826207       0.00000000
C       21.61300000      40.99700000     -30.00000000       0.00000000      12.01100000       35        1       35       0.00000000 _ _      -0.24136037       0.00872378       0.55695468      -0.00382275       0.01937210       0.00000000
C       20.37800000      40.28400000     -30.00000000       0.00000000      12.01100000       36        1       36       0.00000000 _ _       0.63836665       0.27080816      -0.06865106      -0.00029844       0.00527652       0.00000000
C       22.84800000      21.74600000     -30.00000000       0.00000000      12.01100000       41        1       41       0.00000000 _ _       1.64793001       0.40653715      -0.36313498      -0.01303339       0.01652504       0.00000000
C       24.08200000      25.31200000     -30.00000000       0.00000000      12.01100000       42        1       42       0.00000000 _ _      -0.52805719       0.21459992      -0.64455031       0.03367503      -0.04604114       0.00000000
C       24.08200000      23.88500000     -30.00000000       0.00000000      12.01100000       43        1       43       0.00000000 _ _      -0.35599258      -0.77086459       0.07457806       0.03359132       0.01608392       0.00000000
C       22.84800000      23.17200000     -30.00000000       0.00000000      12.01100000       44        1       44       0.00000000 _ _       0.04502516       0.53304716      -0.24243709      -0.01300316       0.01344995       0.00000000
C       22.84800000      26.02400000     -30.00000000       0.00000000      12.01100000       49        1       49       0.00000000 _ _      -0.86037992       0.14242797      -0.29407774      -0.01303142       0.02298016       0.00000000
C       24.08200000      29.59000000     -30.00000000       0.00000000      12.01100000       50        1       50       0.00000000 _ _      -0.32886136       0.82277704       0.19858630       0.03369597      -0.02887916       0.00000000
C       24.08200000      28.16400000     -30.00000000       0.00000000      12.01100000       51        1       51       0.00000000 _ _      -0.04189972      -0.44296017      -0.69727398       0.03353926      -0.03200547       0.00000000
C       22.84800000      27.45000000     -30.00000000       0.00000000      12.01100000       52        1       52       0.00000000 _ _       0.50685813      -0.18010556       0.24422109      -0.01298815       0.03187063       0.00000000
C       22.84800000      30.30200000     -30.00000000       0.00000000      12.01100000       57        1       57       0.00000000 _ _       0.55828617       0.43730844      -0.21408060      -0.01304681       0.02637823       0.00000000
C       24.08200000      33.86700000     -30.00000000       0.00000000      12.01100000       58        1       58       0.00000000 _ _       0.30656896      -0.51713936       0.00359961       0.03356784       0.01875965       0.00000000
C       24.08200000      32.44100000     -30.00000000       0.00000000      12.01100000       59        1       59       0.00000000 _ _      -0.01593799      -0.08405578       0.76408318       0.03361392       0.00684196       0.00000000
C       22.84800000      31.72800000     -30.00000000       0.00000000      12.01100000       60        1       60       0.00000000 _ _       1.20350700      -0.56978282       0.20925457      -0.01301751       0.00326979       0.00000000
C       22.84800000      34.58100000     -30.00000000       0.00000000      12.01100000       65        1       65       0.00000000 _ _      -0.06246348       0.03395740      -0.27568581      -0.01299675      -0.04055241       0.00000000
C       24.08200000      38.14500000     -30.00000000       0.00000000      12.01100000       66        1       66       0.00000000 _ _       0.67618319      -0.34190272       0.24000073       0.03363361       0.01650197       0.00000000
C       24.08200000      36.72000000     -30.00000000       0.00000000      12.01100000       67        1       67       0.00000000 _ _       0.75784749      -0.27448747      -0.24274904       0.03358447      -0.04168449       0.00000000
C       22.84800000      36.00600000     -30.00000000       0.00000000      12.01100000       68        1       68       0.00000000 _ _      -0.32500504      -0.06159287       0.38658753      -0.01301149       0.03558682       0.00000000
C       22.84800000      38.85800000     -30.00000000       0.00000000      12.01100000       73        1       73       0.00000000 _ _      -0.67662301       0.21229848       0.24705380      -0.01302998       0.00559824       0.00000000
C       24.08200000      42.42400000     -30.00000000       0.00000000      12.01100000       74        1       74       0.00000000 _ _       1.04437373      -0.58777340       1.24276823       0.03367055      -0.04605345       0.00000000
C       24.08200000      40.99700000     -30.00000000       0.00000000      12.01100000       75        1       75       0.00000000 _ _       0.00655957      -0.16084176       0.94717471       0.03360023       0.01716333       0.00000000
C       22.84800000      40.28400000     -30.00000000       0.00000000      12.01100000       76        1       76       0.00000000 _ _      -0.10573713       0.18964156      -0.82533639      -0.01300043       0.00424227       0.00000000
C       25.31800000      21.74600000     -30.00000000       0.00000000      12.01100000       81        1       81       0.00000000 _ _      -0.53943860      -0.04307001      -0.66809334      -0.01683418       0.01679009       0.00000000
C       26.55300000      25.31200000     -30.00000000       0.00000000      12.01100000       82        1       82       0.00000000 _ _      -0.34046658      -0.59809358      -0.61456684      -0.02025742      -0.04698855       0.00000000
C       26.55300000      23.88500000     -30.00000000       0.00000000      12.01100000       83        1       83       0.00000000 _ _       0.08590800      -0.05041321       1.14070859      -0.02019818       0.01700689       0.00000000
C       25.31800000      23.17200000     -30.00000000       0.00000000      12.01100000       84        1       84       0.00000000 _ _      -0.38996712      -0.36501330       0.58613430      -0.01679607       0.01313378       0.00000000
C       25.31800000      26.02400000     -30.00000000       0.00000000      12.01100000       89        1       89       0.00000000 _ _       0.08402322       0.19219555      -0.38537960      -0.01683155       0.02323099       0.00000000
C       26.55300000      29.59000000     -30.00000000       0.00000000      12.01100000       90        1       90       0.00000000 _ _      -1.37134014       0.37529599       0.41316696      -0.02026409      -0.02981145       0.00000000
C       26.55300000      28.16400000     -30.00000000       0.00000000      12.01100000       91        1       91       0.00000000 _ _      -0.28865707       0.29248674       0.29129845      -0.02015676      -0.03112309       0.00000000
C       25.31800000      27.45000000     -30.00000000       0.00000000      12.01100000       92        1       92       0.00000000 _ _      -0.45894479      -0.12386957      -0.54624090      -0.01677217       0.03153402       0.00000000
C       25.31800000      30.30200000     -30.00000000       0.00000000      12.01100000       97        1       97       0.00000000 _ _       0.25717255      -0.50468342      -0.20995348      -0.01684245       0.02662720       0.00000000
C       26.55300000      33.86700000     -30.00000000       0.00000000      12.01100000       98        1       98       0.00000000 _ _       0.50066701      -0.05027046      -1.06669539      -0.02017034       0.01786766       0.00000000
C       26.55300000      32.44100000     -30.00000000       0.00000000      12.01100000       99        1       99       0.00000000 _ _       0.26527854      -0.09150448       0.17757304      -0.02020617       0.00775534       0.00000000
C       25.31800000      31.72800000     -30.00000000       0.00000000      12.01100000      100        1      100       0.00000000 _ _      -0.74677215      -0.52599913       0.46024176      -0.01680857       0.00296754       0.00000000
C       25.31800000      34.58100000     -30.00000000       0.00000000      12.01100000      105        1      105       0.00000000 _ _       0.72993086       0.17407507      -0.17613017      -0.01678303      -0.04020195       0.00000000
C       26.55300000      38.14500000     -30.00000000       0.00000000      12.01100000      106        1      106       0.00000000 _ _       0.35995079      -0.26436526       0.60510752      -0.02021386       0.01560846       0.00000000
C       26.55300000      36.72000000     -30.00000000       0.00000000      12.01100000      107        1      107       0.00000000 _ _       0.12131976      -0.64869548      -0.32559565      -0.02017488      -0.04081307       0.00000000
C       25.31800000      36.00600000     -30.00000000       0.00000000      12.01100000      108        1      108       0.00000000 _ _       1.05313882      -0.12229295      -0.80443676      -0.01679461       0.03524625       0.00000000
C       25.31800000      38.85800000     -30.00000000       0.00000000      12.01100000      113        1      113       0.00000000 _ _      -1.08765462       0.08605171      -0.04323064      -0.01682137       0.00587332       0.00000000
C       26.55300000      42.42400000     -30.00000000       0.00000000      12.01100000      114        1      114       0.00000000 _ _      -0.24247371       0.97620292       0.13518116      -0.02025128      -0.04700427       0.00000000
C       26.55300000      40.99700000     -30.00000000       0.00000000      12.01100000      115        1      115       0.00000000 _ _      -0.13698052       0.83271006      -0.54819316      -0.02020418       0.01808754       0.00000000
C       25.31800000      40.28400000     -30.00000000       0.00000000      12.01100000      116        1      116       0.00000000 _ _       0.10093374       0.04738694      -0.83483584      -0.01679585       0.00394735       0.00000000
C       27.78700000      21.74600000     -30.00000000       0.00000000      12.01100000      121        1      121       0.00000000 _ _      -0.68030598       0.85698733       0.39926737       0.02098995       0.01707853       0.00000000
C       29.02200000      25.31200000     -30.00000000       0.00000000      12.01100000      122        1      122       0.00000000 _ _       0.46021704      -0.26932422      -0.16593096       0.02109763      -0.04609085       0.00000000
C       29.02200000      23.88500000     -30.00000000       0.00000000      12.01100000      123        1      123       0.00000000 _ _      -0.21855286      -0.92010769      -0.27712275       0.02104915       0.01616462       0.00000000
C       27.78700000      23.17200000     -30.00000000       0.00000000      12.01100000      124        1      124       0.00000000 _ _       0.46580210      -0.24123570       0.52901434       0.02093599       0.01289662       0.00000000
C       27.78700000      26.02400000     -30.00000000       0.00000000      12.01100000      129        1      129       0.00000000 _ _       0.15260297      -0.76912053       0.30491496       0.02099347       0.02353125       0.00000000
C       29.02200000      29.59000000     -30.00000000       0.00000000      12.01100000      130        1      130       0.00000000 _ _      -0.30088120       0.04414618      -0.33461519       0.02111080      -0.02894129       0.00000000
C       29.02200000      28.16400000     -30.00000000       0.00000000      12.01100000      131        1      131       0.00000000 _ _       0.48348937      -1.09068972       1.08898779       0.02101544      -0.03188323       0.00000000
C       27.78700000      27.45000000     -30.00000000       0.00000000      12.01100000      132        1      132       0.00000000 _ _       0.13139606       0.19228760       0.50048311       0.02089386       0.03131809       0.00000000
C       27.78700000      30.30200000     -30.00000000       0.00000000      12.01100000      137        1      137       0.00000000 _ _       0.10254611      -0.42071631       0.14841616       0.02099731       0.02693137       0.00000000
C       29.02200000      33.86700000     -30.00000000       0.00000000      12.01100000      138        1      138       0.00000000 _ _      -1.06986852      -0.78304800       0.01666926       0.02102407       0.01864868       0.00000000
C       29.02200000      32.44100000     -30.00000000       0.00000000      12.01100000      139        1      139       0.00000000 _ _       1.05499516      -0.89169837      -0.27593038       0.02106599       0.00692789       0.00000000
C       27.78700000      31.72800000     -30.00000000       0.00000000      12.01100000      140        1      140       0.00000000 _ _      -0.50194300      -0.04430493      -0.20837638       0.02094250       0.00271556       0.00000000
C       27.78700000      34.58100000     -30.00000000       0.00000000      12.01100000      145        1      145       0.00000000 _ _       0.49312696      -0.52960398       0.58786201       0.02090475      -0.03999992       0.00000000
C       29.02200000      38.14500000     -30.00000000       0.00000000      12.01100000      146        1      146       0.00000000 _ _      -0.00679828      -0.23978095      -0.80385209       0.02107365       0.01639472       0.00000000
C       29.02200000      36.72000000     -30.00000000       0.00000000      12.01100000      147        1      147       0.00000000 _ _       0.16328395      -0.11917488      -0.23941437       0.02103417      -0.04155355       0.00000000
C       27.78700000      36.00600000     -30.00000000       0.00000000      12.01100000      148        1      148       0.00000000 _ _      -0.33641671       0.47933783       0.43798298       0.02091318       0.03503427       0.00000000
C       27.78700000      38.85800000     -30.00000000       0.00000000      12.01100000      153        1      153       0.00000000 _ _       0.60407334      -0.33662015      -0.44679490       0.02095473       0.00615117       0.00000000
C       29.02200000      42.42400000     -30.00000000       0.00000000      12.01100000      154        1      154       0.00000000 _ _      -0.89304231       0.12159513       0.39957227       0.02109870      -0.04610561       0.00000000
C       29.02200000      40.99700000     -30.00000000       0.00000000      12.01100000      155        1      155       0.00000000 _ _      -0.00128135       0.22508362       0.69400222       0.02105037       0.01724581       0.00000000
C       27.78700000      40.28400000     -30.00000000       0.00000000      12.01100000      156        1      156       0.00000000 _ _       0.34891338       0.17547794      -0.84123766       0.02093695       0.00369006       0.00000000
C       30.25800000      21.74600000     -30.00000000       0.00000000      12.01100000      161        1      161       0.00000000 _ _       0.80768602       0.03431258       0.05898153      -0.01655355       0.01401415       0.00000000
C       31.49300000      25.31200000     -30.00000000       0.00000000      12.01100000      162        1      162       0.00000000 _ _      -1.14465972       0.59105496       0.77089857      -0.00400172      -0.04546551       0.00000000
C       31.49300000      23.88500000     -30.00000000       0.00000000      12.01100000      163        1      163       0.00000000 _ _      -0.43434716      -0.53124814       0.26428739      -0.00399205       0.01551615       0.00000000
C       30.25800000      23.17200000     -30.00000000       0.00000000      12.01100000      164        1      164       0.00000000 _ _      -0.55324752       1.43606617       0.14222780      -0.01651670       0.01589834       0.00000000
C       30.25800000      26.02400000     -30.00000000       0.00000000      12.01100000      169        1      169       0.00000000 _ _       0.45564794      -0.29529440       0.90039269      -0.01655579       0.02046245       0.00000000
C       31.49300000      29.59000000     -30.00000000       0.00000000      12.01100000      170        1      170       0.00000000 _ _       0.46104417       0.38089934      -0.99339384      -0.00400103      -0.02830094       0.00000000
C       31.49300000      28.16400000     -30.00000000       0.00000000      12.01100000      171        1      171       0.00000000 _ _       0.37539205      -0.39779066      -0.14225150      -0.00398270      -0.03256849       0.00000000
C       30.25800000      27.45000000     -30.00000000       0.00000000      12.01100000      172        1      172       0.00000000 _ _       0.80150948       0.01707826      -0.01554708      -0.01649238       0.03428328       0.00000000
C       30.25800000      30.30200000     -30.00000000       0.00000000      12.01100000      177        1      177       0.00000000 _ _      -0.05357318      -1.07756813      -0.36747402      -0.01656557       0.02386181       0.00000000
C       31.49300000      33.86700000     -30.00000000       0.00000000      12.01100000      178        1      178       0.00000000 _ _       1.19465056       0.15184365       0.17713528      -0.00397836       0.01931891       0.00000000
C       31.49300000      32.44100000     -30.00000000       0.00000000      12.01100000      179        1      179       0.00000000 _ _      -1.34395378      -0.75171981       0.15620740      -0.00399475       0.00627619       0.00000000
C       30.25800000      31.72800000     -30.00000000       0.00000000      12.01100000      180        1      180       0.00000000 _ _       1.24091381       0.44143814       0.49035747      -0.01653043       0.00572512       0.00000000
C       30.25800000      34.58100000     -30.00000000       0.00000000      12.01100000      185        1      185       0.00000000 _ _      -0.02526369      -0.39541056      -0.19057774      -0.01650049      -0.04293663       0.00000000
C       31.49300000      38.14500000     -30.00000000       0.00000000      12.01100000      186        1      186       0.00000000 _ _      -0.15954948      -0.08510618      -0.28394414      -0.00399207       0.01707057       0.00000000
C       31.49300000      36.72000000     -30.00000000       0.00000000      12.01100000      187        1      187       0.00000000 _ _      -0.64476291      -0.83128722       0.03260172      -0.00397535      -0.04224598       0.00000000
C       30.25800000      36.00600000     -30.00000000       0.00000000      12.01100000      188        1      188       0.00000000 _ _       0.71215116      -0.01658070      -0.08616253      -0.01651316       0.03798132       0.00000000
C       30.25800000      38.85800000     -30.00000000       0.00000000      12.01100000      193        1      193       0.00000000 _ _       0.88048800      -0.01589669       0.02772323      -0.01654102       0.00312099       0.00000000
C       31.49300000      42.42400000     -30.00000000       0.00000000      12.01100000      194        1      194       0.00000000 _ _       0.08005271       0.23050666      -0.26638908      -0.00400261      -0.04547931       0.00000000
C       31.49300000      40.99700000     -30.00000000       0.00000000      12.01100000      195        1      195       0.00000000 _ _       0.04217248      -0.36113218      -0.74508240      -0.00399072       0.01659671       0.00000000
C       30.25800000      40.28400000     -30.00000000       0.00000000      12.01100000      196        1      196       0.00000000 _ _       0.05517503      -0.19544967      -0.05912966      -0.01651466       0.00669806       0.00000000
C       32.72800000      21.74600000     -30.00000000       0.00000000      12.01100000      201        1      201       0.00000000 _ _       0.65044968      -0.73050007      -0.04510107      -0.00041621       0.01659567       0.00000000
C       33.96300000      25.31200000     -30.00000000       0.00000000      12.01100000      202        1      202       0.00000000 _ _      -0.09743988       0.54367503       0.56511775      -0.00020770      -0.04650198       0.00000000
C       33.96300000      23.88500000     -30.00000000       0.00000000      12.01100000      203        1      203       0.00000000 _ _      -0.14405606      -0.58092227       0.40039162      -0.00020668       0.01654765       0.00000000
C       32.72800000      23.17200000     -30.00000000       0.00000000      12.01100000      204        1      204       0.00000000 _ _      -0.07570051      -0.70916112      -0.99449917      -0.00041675       0.01334991       0.00000000
C       32.72800000      26.02400000     -30.00000000       0.00000000      12.01100000      209        1      209       0.00000000 _ _       0.24652913      -0.44153696      -0.40881309      -0.00041677       0.02304345       0.00000000
C       33.96300000      29.59000000     -30.00000000       0.00000000      12.01100000      210        1      210       0.00000000 _ _      -0.47287350       0.08333621      -0.62655260      -0.00020922      -0.02933989       0.00000000
C       33.96300000      28.16400000     -30.00000000       0.00000000      12.01100000      211        1      211       0.00000000 _ _      -0.04233745      -0.12252174      -0.00798833      -0.00020707      -0.03153937       0.00000000
C       32.72800000      27.45000000     -30.00000000       0.00000000      12.01100000      212        1      212       0.00000000 _ _       0.20994095       0.81727715      -0.50557702      -0.00041677       0.03175681       0.00000000
C       32.72800000      30.30200000     -30.00000000       0.00000000      12.01100000      217        1      217       0.00000000 _ _      -0.37406055      -1.13368852       0.32420523      -0.00041720       0.02644469       0.00000000
C       33.96300000      33.86700000     -30.00000000       0.00000000      12.01100000      218        1      218       0.00000000 _ _      -0.12804098       0.10274044      -0.52730632      -0.00020619       0.01829289       0.00000000
C       33.96300000      32.44100000     -30.00000000       0.00000000      12.01100000      219        1      219       0.00000000 _ _       0.85520439       0.48925409      -0.20805034      -0.00020653       0.00730537       0.00000000
C       32.72800000      31.72800000     -30.00000000       0.00000000      12.01100000      220        1      220       0.00000000 _ _      -0.11248463       0.64274043      -1.13117295      -0.00041567       0.00317205       0.00000000
C       32.72800000      34.58100000     -30.00000000       0.00000000      12.01100000      225        1      225       0.00000000 _ _      -0.72143302       0.16070085      -0.44205894      -0.00041936      -0.04042849       0.00000000
C       33.96300000      38.14500000     -30.00000000       0.00000000      12.01100000      226        1      226       0.00000000 _ _       0.19302981       0.31455941      -0.74501306      -0.00020900       0.01603790       0.00000000
C       33.96300000      36.72000000     -30.00000000       0.00000000      12.01100000      227        1      227       0.00000000 _ _      -0.02205508      -0.60728027       0.81863765      -0.00020731      -0.04121872       0.00000000
C       32.72800000      36.00600000     -30.00000000       0.00000000      12.01100000      228        1      228       0.00000000 _ _       0.13078394       2.33254509      -0.31021376      -0.00041993       0.03547011       0.00000000
C       32.72800000      38.85800000     -30.00000000       0.00000000      12.01100000      233        1      233       0.00000000 _ _      -0.55596754      -0.08181874       0.05997879      -0.00041586       0.00568140       0.00000000
C       33.96300000      42.42400000     -30.00000000       0.00000000      12.01100000      234        1      234       0.00000000 _ _       0.32213265      -0.69029572      -0.61103993      -0.00020780      -0.04651417       0.00000000
C       33.96300000      40.99700000     -30.00000000       0.00000000      12.01100000      235        1      235       0.00000000 _ _       0.14284696      -0.33086356      -0.49748906      -0.00020516       0.01762738       0.00000000
C       32.72800000      40.28400000     -30.00000000       0.00000000      12.01100000      236        1      236       0.00000000 _ _       0.15045582       0.19762785       0.04666671      -0.00042058       0.00414833       0.00000000
C       35.19800000      21.74600000     -30.00000000       0.00000000      12.01100000      241        1      241       0.00000000 _ _       0.49311139      -0.08421391       0.59622738      -0.00014515       0.01607908       0.00000000
C       36.43300000      25.31200000     -30.00000000       0.00000000      12.01100000      242        1      242       0.00000000 _ _       0.82460806      -0.90679028      -0.79840760      -0.00002327      -0.04656534       0.00000000
C       36.43300000      23.88500000     -30.00000000       0.00000000      12.01100000      243        1      243       0.00000000 _ _      -0.37263181      -0.86974976       0.44484626      -0.00002108       0.01661092       0.00000000
C       35.19800000      23.17200000     -30.00000000       0.00000000      12.01100000      244        1      244       0.00000000 _ _      -0.49037285      -0.14680174      -0.89317475      -0.00014325       0.01386602       0.00000000
C       35.19800000      26.02400000     -30.00000000       0.00000000      12.01100000      249        1      249       0.00000000 _ _       0.00713767      -0.63229455       0.55186948      -0.00014402       0.02252851       0.00000000
C       36.43300000      29.59000000     -30.00000000       0.00000000      12.01100000      250        1      250       0.00000000 _ _      -0.33208463       0.91175660      -0.89841215      -0.00002197      -0.02939966       0.00000000
C       36.43300000      28.16400000     -30.00000000       0.00000000      12.01100000      251        1      251       0.00000000 _ _      -0.65817085       0.79212073      -0.15757345      -0.00002013      -0.03147822       0.00000000
C       35.19800000      27.45000000     -30.00000000       0.00000000      12.01100000      252        1      252       0.00000000 _ _      -0.18435541      -1.38305241       0.12281753      -0.00014526       0.03227224       0.00000000
C       35.19800000      30.30200000     -30.00000000       0.00000000      12.01100000      257        1      257       0.00000000 _ _       0.51877593      -0.15874012      -0.93251737      -0.00014345       0.02592687       0.00000000
C       36.43300000      33.86700000     -30.00000000       0.00000000      12.01100000      258        1      258       0.00000000 _ _       0.00173243      -1.23986160       0.15941352      -0.00001954       0.01823187       0.00000000
C       36.43300000      32.44100000     -30.00000000       0.00000000      12.01100000      259        1      259       0.00000000 _ _      -0.03734112      -0.41029121       0.93426242      -0.00001967       0.00736762       0.00000000
C       35.19800000      31.72800000     -30.00000000       0.00000000      12.01100000      260        1      260       0.00000000 _ _      -0.33307336       0.91793611       0.36888505      -0.00014488       0.00369053       0.00000000
C       35.19800000      34.58100000     -30.00000000       0.00000000      12.01100000      265        1      265       0.00000000 _ _      -0.44762254       0.10926128      -0.79122649      -0.00014463      -0.04094109       0.00000000
C       36.43300000      38.14500000     -30.00000000       0.00000000      12.01100000      266        1      266       0.00000000 _ _       0.02445329       0.52431008       0.57295356      -0.00002030       0.01597713       0.00000000
C       36.43300000      36.72000000     -30.00000000       0.00000000      12.01100000      267        1      267       0.00000000 _ _       0.62121686      -0.03646904       0.38129360      -0.00002027      -0.04115836       0.00000000
C       35.19800000      36.00600000     -30.00000000       0.00000000      12.01100000      268        1      268       0.00000000 _ _      -0.84221570       0.03861734       0.92452007      -0.00014404       0.03598167       0.00000000
C       35.19800000      38.85800000     -30.00000000       0.00000000      12.01100000      273        1      273       0.00000000 _ _       0.00837719       0.12028291      -0.68162482      -0.00014488       0.00516511       0.00000000
C       36.43300000      42.42400000     -30.00000000       0.00000000      12.01100000      274        1      274       0.00000000 _ _       0.25582876      -0.04865474       0.13366814      -0.00002094      -0.04657884       0.00000000
C       36.43300000      40.99700000     -30.00000000       0.00000000      12.01100000      275        1      275       0.00000000 _ _      -0.45435750       0.91723757      -0.18101096      -0.00002101       0.01769297       0.00000000
C       35.19800000      40.28400000     -30.00000000       0.00000000      12.01100000      276        1      276       0.00000000 _ _      -0.42497047       0.42449740      -0.40721766      -0.00014503       0.00466599       0.00000000
C       37.66800000      21.74600000     -30.00000000       0.00000000      12.01100000      281        1      281       0.00000000 _ _      -0.74436854       0.30867097       0.49702565      -0.00000627       0.01605583       0.00000000
C       38.90300000      25.31200000     -30.00000000       0.00000000      12.01100000      282        1      282       0.00000000 _ _      -0.19228545       0.49681542      -0.18651237      -0.00014971      -0.04663194       0.00000000
C       38.90300000      23.88500000     -30.00000000       0.00000000      12.01100000      283        1      283       0.00000000 _ _       0.34435584      -0.49506795       0.07624669      -0.00014904       0.01667592       0.00000000
C       37.66800000      23.17200000     -30.00000000       0.00000000      12.01100000      284        1      284       0.00000000 _ _      -0.49767378       0.93589872      -0.17934590      -0.00000666       0.01389018       0.00000000
C       37.66800000      26.02400000     -30.00000000       0.00000000      12.01100000      289        1      289       0.00000000 _ _      -0.32220955       0.60333221       0.23579801      -0.00000594       0.02250671       0.00000000
C       38.90300000      29.59000000     -30.00000000       0.00000000      12.01100000      290        1      290       0.00000000 _ _       0.13970250       0.72627132       0.02993101      -0.00015055      -0.02946636       0.00000000
C       38.90300000      28.16400000     -30.00000000       0.00000000      12.01100000      291        1      291       0.00000000 _ _       0.48601904       0.20329027       0.39918622      -0.00014796      -0.03141473       0.00000000
C       37.66800000      27.45000000     -30.00000000       0.00000000      12.01100000      292        1      292       0.00000000 _ _      -0.46003225       0.58695207       0.50531767      -0.00000727       0.03229545       0.00000000
C       37.66800000      30.30200000     -30.00000000       0.00000000      12.01100000      297        1      297       0.00000000 _ _      -0.30049920      -0.03800308       0.93092717      -0.00000704       0.02590577       0.00000000
C       38.90300000      33.86700000     -30.00000000       0.00000000      12.01100000      298        1      298       0.00000000 _ _       0.90425870      -0.73751931       0.94788593      -0.00014808       0.01816813       0.00000000
C       38.90300000      32.44100000     -30.00000000       0.00000000      12.01100000      299        1      299       0.00000000 _ _       0.42286515       1.28776725      -0.46005679      -0.00014942       0.00743275       0.00000000
C       37.66800000      31.72800000     -30.00000000       0.00000000      12.01100000      300        1      300       0.00000000 _ _       0.35772850      -0.75345830      -0.10651926      -0.00000832       0.00371303       0.00000000
C       37.66800000      34.58100000     -30.00000000       0.00000000      12.01100000      305        1      305       0.00000000 _ _      -0.43945842       0.95976512       0.67257120      -0.00000764      -0.04096624       0.00000000
C       38.90300000      38.14500000     -30.00000000       0.00000000      12.01100000      306        1      306       0.00000000 _ _      -0.03696854      -0.24777637       0.70560904      -0.00014933       0.01591343       0.00000000
C       38.90300000      36.72000000     -30.00000000       0.00000000      12.01100000      307        1      307       0.00000000 _ _       0.01662373       0.20624343       0.76257586      -0.00014667      -0.04109602       0.00000000
C       37.66800000      36.00600000     -30.00000000       0.00000000      12.01100000      308        1      308       0.00000000 _ _      -0.24203858      -0.04396104       0.67019263      -0.00000908       0.03600646       0.00000000
C       37.66800000      38.85800000     -30.00000000       0.00000000      12.01100000      313        1      313       0.00000000 _ _       0.06854870      -0.24394803      -1.24254112      -0.00000731       0.00514226       0.00000000
C       38.90300000      42.42400000     -30.00000000       0.00000000      12.01100000      314        1      314       0.00000000 _ _      -0.22489846      -0.68524291      -0.13796758      -0.00014891      -0.04664511       0.00000000
C       38.90300000      40.99700000     -30.00000000       0.00000000      12.01100000      315        1      315       0.00000000 _ _       1.29297810      -0.08705791       0.48285751      -0.00014813       0.01775738       0.00000000
C       37.66800000      40.28400000     -30.00000000       0.00000000      12.01100000      316        1      316       0.00000000 _ _      -0.11310909      -0.14120571       0.36407126      -0.00000666       0.00468780       0.00000000
O       22.80729900      21.08010100      -3.40250500       0.00000000      15.99900000        0        0        0       0.00000000 0 0       0.09270643      -0.25382572     -32.57558205      -0.51017427       1.52876687      -0.86339664
H       22.31985700      21.54237500      -4.10023000       0.00000000       1.00800000        0        0        0       0.00000000 0 0       0.19286440      -0.23122630      -2.05238994      -0.23012421      -0.12044998      -0.39904219
H       22.14419300      20.50237200      -2.99674900       0.00000000       1.00800000        0        0        0       0.00000000 0 0       0.01017042      -0.43469568      -2.05238994       0.02380759      -0.32615286      -0.48511600
O       18.95636200      20.21764100       3.95916500       0.00000000      15.99900000        0        0        0       0.00000000 0 0      -0.30621730       0.05351947     -32.57558205      -2.31637526       1.26344490       2.05200148
H       18.61014700      19.34446200       4.19541100       0.00000000       1.00800000        0        0        0       0.00000000 0 0       0.02964850       0.10633896      -2.05238994       0.34256667      -0.24745476       0.00692777
H       18.78239000      20.75872300       4.74343700       0.00000000       1.00800000        0        0        0       0.00000000 0 0       0.08193539       0.21713921      -2.05238994      -0.24322908       0.08314707       0.51958942
O       24.00732800      19.93901900      -1.96411500       0.00000000      15.99900000        0        0        0       0.00000000 0 0       0.63183269       0.46218332     -32.57558205       1.23467028      -1.46997261       1.19085598
H       23.31992300      19.75965800      -1.30576700       0.00000000       1.00800000        0        0        0       0.00000000 0 0       0.21963644       0.00659323      -2.05238994      -0.00348154      -0.38583577       0.67806572
H       24.27244100      20.85283200      -1.78306600       0.00000000       1.00800000        0        0        0       0.00000000 0 0       0.09657476      -0.04728726      -2.05238994       0.04239361       0.28953156      -0.11498364
O       19.90039100      19.35080000      -1.32658400       0.00000000      15.99900000        0        0        0       0.00000000 0 0      -0.02036381       0.60841814     -32.57558205      -0.02759308      -2.44516921      -1.21587777
H       19.66422300      19.39419600      -2.26491300       0.00000000       1.00800000        0        0        0       0.00000000 0 0      -0.21873607       0.01611862      -2.05238994      -0.56151897       0.35323882      -0.18151607
H       20.82041600      19.04804800      -1.33028100       0.00000000       1.00800000        0        0        0       0.00000000 0 0      -0.21242152       0.13835797      -2.05238994       0.33494172      -0.10511956       0.12919934
O       22.64047700      20.52599300       2.60522200       0.00000000      15.99900000        0        0        0       0.00000000 0 0      -0.42429843      -0.53310543     -32.57558205       0.05093270      -0.36152542       0.37306571
H       22.16461500      21.35643800       2.75366400       0.00000000       1.00800000        0        0        0       0.00000000 0 0       0.27279455       0.02559584      -2.05238994       0.16947627       0.13206831      -0.03227880
H       23.46147800      20.63332600       3.10777100       0.00000000       1.00800000        0        0        0       0.00000000 0 0       0.00961000       0.22152236      -2.05238994       0.41552633       0.21150881      -0.18403001
O       17.39738900      20.52606500       0.46791000       0.00000000      15.99900000        0        0        0       0.00000000 0 0       0.21929022      -1.09148912     -32.57558205       0.51203209       0.34669614      -0.13727474
H       17.31335800      19.80005000      -0.16766800       0.00000000       1.00800000        0        0        0       0.00000000 0 0       0.34800793       0.07723268      -2.05238994       0.10393079      -0.31400606      -0.13071929
H       17.08520900      21.30216800      -0.02027700       0.00000000       1.00800000        0        0        0       0.00000000 0 0      -0.25771923       0.08809614      -2.05238994      -0.18766975       0.16542932      -0.02145036
O       19.11570500      21.78201100       2.05769800       0.00000000      15.99900000        0        0        0       0.00000000 0 0       0.77071296      -1.04390140     -32.57558205       1.00542879       1.85785389      -1.20799267
H       19.87731800      21.69384000       2.64955100       0.00000000       1.00800000        0        0        0       0.00000000 0 0       0.38262988       0.07695918      -2.05238994      -0.25987259      -0.49255738       0.19544022
H       18.36289400      21.88509000       2.65833800       0.00000000       1.00800000        0        0        0       0.00000000 0 0      -0.09719858      -0.24235015      -2.05238994      -0.02310707      -0.06674942      -0.00940846
O       21.70350400      25.38743800      -2.17405700       0.00000000      15.99900000        0        0        0       0.00000000 0 0      -0.20242019       0.43390528     -32.57558205      -0.51309347       0.79993588      -2.68081045
H       20.91204900      25.44204500      -1.61841900       0.00000000       1.00800000        0        0        0       0.00000000 0 0       0.17770813      -0.01045646      -2.05238994       0.09366632       0.08955932      -0.01440625
H       22.01902100      24.48098800      -2.04399700       0.00000000       1.00800000        0        0        0       0.00000000 0 0      -0.13389912       0.04639156      -2.05238994       0.26315135      -0.19731048       0.26890758
O       18.16204800      21.15808400      -2.27452100       0.00000000      15.99900000        0        0        0       0.00000000 0 0      -0.40435329       0.74537742     -32.57558205       1.15082812       0.79209161       1.11072803
H       18.41338800      21.85533700      -1.65099600       0.00000000       1.00800000        0        0        0       0.00000000 0 0      -0.00863055      -0.22550874      -2.05238994       0.04573611       0.29906955      -0.30084831
H       18.16979700      21.60034900      -3.13618200       0.00000000       1.00800000        0        0        0       0.00000000 0 0       0.04570623      -0.05276121      -2.05238994      -0.03942050       0.47118801       0.20201798
O       14.92052600      21.19178300       0.32896600       0.00000000      15.99900000        0        0        0       0.00000000 0 0      -1.51105044      -0.58828509     -32.57558205      -0.95049268       0.50720990       0.24549553
H       15.07667100      21.11010800       1.28136600       0.00000000       1.00800000        0        0        0       0.00000000 0 0       0.06202843      -0.17392810      -2.05238994       0.07971989      -0.09385644       0.17715764
H       15.00804600      20.28551500      -0.00139300       0.00000000       1.00800000        0        0        0       0.00000000 0 0       0.24924138       0.04177490      -2.05238994      -0.13194701      -0.18598109      -0.03655764
O       16.67226700      18.09229700       1.28108300       0.00000000      15.99900000        0        0        0       0.00000000 0 0      -1.16137853      -0.43713520     -32.57558205      -0.44295397      -0.16454761       0.09941435
H       17.35230400      17.49459600       1.62520800       0.00000000       1.00800000        0        0        0       0.00000000 0 0      -0.04913174      -0.09027554      -2.05238994       0.34854680      -0.30215055      -0.08429369
H       16.35666500      18.56459900       2.06558600       0.00000000       1.00800000        0        0        0       0.00000000 0 0       0.08834322      -0.02895664      -2.05238994      -0.26755244       0.06324060       0.08939761
O       18.02953600      24.32281000       2.03045900       0.00000000      15.99900000        0        0        0       0.00000000 0 0      -2.03169244       0.54836745     -32.57558205      -2.00146222      -0.51810628      -0.82882416
H       17.74567100      24.83223700       2.80377800       0.00000000       1.00800000        0        0        0       0.00000000 0 0      -0.31945933       0.26340927      -2.05238994       0.25135142       0.15768458       0.09669437
H       17.21192700      23.92098400       1.70156700       0.00000000       1.00800000        0        0        0       0.00000000 0 0      -0.10575991      -0.39464753      -2.05238994      -0.37831047       0.01818757      -0.04634299
O       22.51515500      24.06593600       2.18552100       0.00000000      15.99900000        0        0        0       0.00000000 0 0       0.68480984      -0.42701726     -32.57558205      -0.75179654       1.05520093       0.78076953
H       22.76723700      23.52494500       2.94834600       0.00000000       1.00800000        0        0        0       0.00000000 0 0      -0.11570007      -0.27542358      -2.05238994       0.30559418      -0.08326840      -0.19446836
H       22.10160500      24.84819000       2.57944000       0.00000000       1.00800000        0        0        0       0.00000000 0 0      -0.09449181      -0.04942251      -2.05238994      -0.35433695       0.31533194       0.44369811
O       18.04058700      25.45970800      -0.35358100       0.00000000      15.99900000        0        0        0       0.00000000 0 0      -0.37604682       0.66116057     -32.57558205       0.10280743       0.31147498      -0.58040595
H       18.60715800      25.64081600      -1.11798600       0.00000000       1.00800000        0        0        0       0.00000000 0 0      -0.10236193       0.00858119      -2.05238994      -0.06928599       0.35792851      -0.19172323
H       18.21252200      24.52855000      -0.14986400       0.00000000       1.00800000        0        0        0       0.00000000 0 0       0.14691324      -0.27869269      -2.05238994      -0.01886934      -0.05163634       0.46656168
O       20.13784100      22.53775200      -3.44265700       0.00000000      15.99900000        0        0        0       0.00000000 0 0       0.21622859      -0.47187370     -32.57558205      -0.17332327       0.19064970      -1.51499057
H       20.84971500      23.19171300      -3.38192100       0.00000000       1.00800000        0        0        0       0.00000000 0 0      -0.09557798      -0.06801934      -2.05238994       0.00597119       0.23965935      -0.11768931
H       20.40917800      21.83844100      -2.82991000       0.00000000       1.00800000        0        0        0       0.00000000 0 0      -0.05900110       0.03510096      -2.05238994      -0.08394153      -0.17666166       0.10674244
O       19.93074300      24.50444500       3.13693700       0.00000000      15.99900000        0        0        0       0.00000000 0 0       1.15089988       0.28110248     -32.57558205       1.57988644       0.72253418       1.35564005
H       20.13846500      23.86720900       2.43772300       0.00000000       1.00800000        0        0        0       0.00000000 0 0       0.02984964      -0.13148290      -2.05238994      -0.25734812      -0.22662516      -0.27492517
H       20.16698700      24.04107000       3.95399900       0.00000000       1.00800000        0        0        0       0.00000000 0 0      -0.21888928      -0.12094940      -2.05238994       0.16992611       0.04105096       0.37929296
O       15.60185400      21.03321800      -2.48102100       0.00000000      15.99900000        0        0        0       0.00000000 0 0      -0.19860218      -0.64070213     -32.57558205      -0.82840586      -0.30637819      -0.63323158
H       15.44655700      21.85132500      -1.98634800       0.00000000       1.00800000        0        0        0       0.00000000 0 0       0.00674051      -0.00561972      -2.05238994      -0.15745616       0.31092742       0.19221564
H       16.13295700      20.49216800      -1.87826600       0.00000000       1.00800000        0        0        0       0.00000000 0 0      -0.10530562      -0.02299831      -2.05238994       0.20653382       0.04841698      -0.27400002
O       20.28729900      23.37428300      -1.26220000       0.00000000      15.99900000        0        0        0       0.00000000 0 0       0.88864609       0.09052393     -32.57558205      -1.36004472       2.09815097       0.91013777
H       19.52051700      23.74272500      -1.72525000       0.00000000       1.00800000        0        0        0       0.00000000 0 0      -0.25115257       0.07483899      -2.05238994      -0.25124279       0.05821963      -0.51478887
H       20.23959400      23.76901100      -0.37900600       0.00000000       1.00800000        0        0        0       0.00000000 0 0      -0.11130284       0.29155169      -2.05238994       0.26776803       0.08725349       0.47779405
O       17.60771900      19.19791900      -3.06334300       0.00000000      15.99900000        0        0        0       0.00000000 0 0       0.01845218      -0.18718333     -32.57558205      -0.12725860      -2.25517845      -0.82265395
H       17.12191000      19.74832900      -3.69513100       0.00000000       1.00800000        0        0        0       0.00000000 0 0      -0.19622475      -0.08824979      -2.05238994      -0.40364051       0.22391205       0.01748994
H       18.12449200      18.59953300      -3.62280400       0.00000000       1.00800000        0        0        0       0.00000000 0 0      -0.07016669       0.05526527      -2.05238994      -0.21521389      -0.48709741      -0.20880434
O       19.35152500      19.38527800       1.97403800       0.00000000      15.99900000        0        0        0       0.00000000 0 0       0.34005643      -0.58701471     -32.57558205       1.20386064      -1.19728231      -0.64291167
H       18.38558100      19.34638200       2.03367000       0.00000000       1.00800000        0        0        0       0.00000000 0 0       0.19508576      -0.00828147      -2.05238994      -0.13213016       0.16614023      -0.45880926
H       19.51640300      19.83422800       1.13179200       0.00000000       1.00800000        0        0        0       0.00000000 0 0      -0.12544553       0.22934166      -2.05238994      -0.55836689      -0.10047940      -0.31286711
O       20.52522300      21.30168100      -0.59362900       0.00000000      15.99900000        0        0        0       0.00000000 0 0       0.23983911      -0.84980708     -32.57558205       1.65698802       0.24467658       2.00897074
H       21.14378400      20.86407500       0.00969600       0.00000000       1.00800000        0        0        0       0.00000000 0 0       0.06353642      -0.01353925      -2.05238994       0.07761569      -0.39630273       0.09052321
H       19.84747700      21.66993900      -0.00782600       0.00000000       1.00800000        0        0        0       0.00000000 0 0       0.01542910       0.09293412      -2.05238994      -0.30713004       0.15974887       0.21078390
O       22.53222900      25.43708800      -0.14003500       0.00000000      15.99900000        0        0        0       0.00000000 0 0      -0.29395723       0.22798643     -32.57558205       0.41992509       0.72198546       1.28564429
H       21.83993200      25.54114600       0.52930400       0.00000000       1.00800000        0        0        0       0.00000000 0 0      -0.00410597       0.12664694      -2.05238994       0.12091048       0.10440707       0.25276896
H       22.93235300      24.57992000       0.06800700       0.00000000       1.00800000        0        0        0       0.00000000 0 0      -0.10962512       0.39544627      -2.05238994       0.24249864      -0.55431491       0.31687093
O       17.12266700      23.51652300      -2.53641200       0.00000000      15.99900000        0        0        0       0.00000000 0 0      -1.13056081      -0.05086019     -32.57558205       1.64225399       0.63382411      -1.70785618
H       16.63937100      23.15499600      -3.29393600       0.00000000       1.00800000        0        0        0       0.00000000 0 0      -0.22907864       0.00424563      -2.05238994      -0.24234703      -0.30981928      -0.19594538
H       17.39221700      24.39925900      -2.83007400       0.00000000       1.00800000        0        0        0       0.00000000 0 0      -0.00503715       0.15917565      -2.05238994      -0.00611868       0.32769156      -0.23672670
O       20.99439000      19.39330800       3.92814600       0.00000000      15.99900000        0        0        0       0.00000000 0 0       0.20482356       0.19417340     -32.57558205       0.65828443      -1.59968936       1.50925851
H       21.71331600      18.82190000       3.62032000       0.00000000       1.00800000        0        0        0       0.00000000 0 0      -0.14832107       0.03645164      -2.05238994       0.25522193       0.06387670      -0.22570412
H       21.44826900      20.10853900       4.39778100       0.00000000       1.00800000        0        0        0       0.00000000 0 0      -0.08323944       0.10891350      -2.05238994      -0.01996375      -0.11508842       0.04234874
O       15.74158800      23.69171500      -0.83549400       0.00000000      15.99900000        0        0        0       0.00000000 0 0       1.32580525       0.58098587     -32.57558205      -1.45096970      -0.08915803       1.94581640
H       15.27055900      23.32453500      -0.07297900       0.00000000       1.00800000        0        0        0       0.00000000 0 0      -0.05410009       0.34242540      -2.05238994      -0.44755208      -0.31302628       0.24651948
H       16.05548900      24.55351500      -0.52423100       0.00000000       1.00800000        0        0        0       0.00000000 0 0      -0.17012210      -0.07042272      -2.05238994       0.32801226       0.38452691      -0.25807640
O       19.12230200      17.51152200       0.30539700       0.00000000      15.99900000        0        0        0       0.00000000 0 0      -1.28406006       0.04836475     -32.57558205      -0.20023391      -1.53315794       0.13848776
H       18.41751500      17.55727900      -0.35740000       0.00000000       1.00800000        0        0        0       0.00000000 0 0      -0.26822920      -0.22679649      -2.05238994      -0.03610555       0.08869502      -0.20124367
H       19.92668000      17.37615100      -0.21687600       0.00000000       1.00800000        0        0        0       0.00000000 0 0       0.17097769       0.06911264      -2.05238994      -0.13084628       0.02272876      -0.08739395
O       22.43859700      18.80623200       0.65699900       0.00000000      15.99900000        0        0        0       0.00000000 0 0       0.46697172      -0.04345981     -32.57558205      -0.01307714       0.04928079      -0.91645211
H       21.56240300      18.96424200       1.03835900       0.00000000       1.00800000        0        0        0       0.00000000 0 0       0.07747385       0.08744041      -2.05238994      -0.21599796      -0.04235875       0.56708354
H       22.38908500      17.89787400       0.32450300       0.00000000       1.00800000        0        0        0       0.00000000 0 0       0.13842934       0.20700114      -2.05238994       0.09939935      -0.31633908      -0.08601578
O       20.51828400      20.19038300      -4.63606100       0.00000000      15.99900000        0        0        0       0.00000000 0 0       1.13272282       0.29288125     -32.57558205      -0.23981786      -0.80305195      -0.11514945
H       19.86601400      20.87395300      -4.84912000       0.00000000       1.00800000        0        0        0       0.00000000 0 0       0.00750536       0.03795547      -2.05238994      -0.02756298       0.53850198       0.02115196
H       19.98404600      19.39849800      -4.47597800       0.00000000       1.00800000        0        0        0       0.00000000 0 0       0.09618033       0.01313767      -2.05238994       0.01792970      -0.26037455      -0.18718523
O       23.52580400      22.31271100       1.29468400       0.00000000      15.99900000        0        0        0       0.00000000 0 0       1.41927072       0.61371930     -32.57558205       1.54882538      -0.32001680      -0.42355782
H       23.04974700      21.65628900       0.76496900       0.00000000       1.00800000        0        0        0       0.00000000 0 0       0.08922737       0.16191515      -2.05238994       0.15013723      -0.02500710      -0.07669508
H       24.42721400      22.29010500       0.94103500       0.00000000       1.00800000        0        0        0       0.00000000 0 0       0.03405242      -0.17983191      -2.05238994       0.17075276       0.02489083      -0.18187797
O       22.96509000      22.70525200      -1.17240000       0.00000000      15.99900000        0        0        0       0.00000000 0 0       0.40427711      -0.52191268     -32.57558205       0.34807593       0.48331645      -0.12851691
H       22.25933500      22.19212600      -1.59279300       0.00000000       1.00800000        0        0        0       0.00000000 0 0       0.25107241       0.07974450      -2.05238994      -0.07611859       0.02446203      -0.15891959
H       23.56305200      22.92325000      -1.90249300       0.00000000       1.00800000        0        0        0       0.00000000 0 0      -0.02365656      -0.07212916      -2.05238994       0.19699623      -0.17005903      -0.29677472